  8    6.000   0.12849291   0.04515958   0.14067339
  8    6.000   0.12150709   0.12849291   0.14067339
  8    6.000   0.04515958   0.03817376   0.14067339
  8    6.000   0.03817376   0.12150709   0.14067339
  8    6.000   0.08333333   0.08333333   0.10263373
  8    6.000   0.00000000   0.00000000   0.10263373
  8    6.000   0.00000000   0.00000000   0.17871304
  8    6.000   0.08333333   0.08333333   0.17871304
  8    6.000   0.12864267   0.04526913   0.29326611
  8    6.000   0.12146339   0.12863231   0.29330087
  8    6.000   0.04528668   0.03806373   0.29324939
  8    6.000   0.03808197   0.12141943   0.29324918
  8    6.000   0.08333333   0.08333333   0.25479235
  8    6.000   0.00000000   0.00000000   0.25479235
  8    6.000   0.04515958   0.12849291   0.21675270
  8    6.000   0.03817376   0.04515958   0.21675270
  8    6.000   0.12849291   0.12150709   0.21675270
  8    6.000   0.12150709   0.03817376   0.21675270
  8    6.000   0.00000000   0.00000000   0.33168972
  8    6.000   0.08331591   0.08334832   0.33168193
  8    6.000   0.12902372   0.04569238   0.44753221
  8    6.000   0.12094010   0.12903844   0.44751927
  8    6.000   0.04570202   0.03763159   0.44747034
  8    6.000   0.03761790   0.12096551   0.44746552
  8    6.000   0.08340400   0.08333005   0.40859650
  8    6.000   0.00000000   0.00000000   0.40860049
  8    6.000   0.04533678   0.12867921   0.37017784
  8    6.000   0.03803321   0.04532338   0.37017143
  8    6.000   0.12870150   0.12139343   0.37012160
  8    6.000   0.12138802   0.03802987   0.37011980
  8    6.000   0.00000000   0.00000000   0.48587195
  8    6.000   0.08325415   0.08331116   0.48589132
  8    6.000   0.12849291   0.21182624   0.14067339
  8    6.000   0.12150709   0.29515958   0.14067339
  8    6.000   0.04515958   0.20484042   0.14067339
  8    6.000   0.03817376   0.28817376   0.14067339
  8    6.000   0.08333333   0.25000000   0.10263373
  8    6.000   0.00000000   0.16666667   0.10263373
  8    6.000   0.00000000   0.16666667   0.17871304
  8    6.000   0.08333333   0.25000000   0.17871304
  8    6.000   0.12868635   0.21198801   0.29327586
  8    6.000   0.12147442   0.29533507   0.29331911
  8    6.000   0.04531045   0.20475710   0.29327128
  8    6.000   0.03808026   0.28809176   0.29326845
  8    6.000   0.08333333   0.25000000   0.25479235
  8    6.000   0.00000000   0.16666667   0.25479235
  8    6.000   0.04515958   0.29515958   0.21675270
  8    6.000   0.03817376   0.21182624   0.21675270
  8    6.000   0.12849291   0.28817376   0.21675270
  8    6.000   0.12150709   0.20484042   0.21675270
  8    6.000   0.00001059   0.16671730   0.33169770
  8    6.000   0.08339231   0.25008773   0.33171723
  8    6.000   0.12900217   0.21236377   0.44758719
  8    6.000   0.12099140   0.29576653   0.44759021
  8    6.000   0.04571146   0.20431496   0.44747074
  8    6.000   0.03759549   0.28762393   0.44747272
  8    6.000   0.08344553   0.25002384   0.40863707
  8    6.000   0.99999235   0.16667648   0.40860687
  8    6.000   0.04537052   0.29537676   0.37020715
  8    6.000   0.03807498   0.21203233   0.37019714
  8    6.000   0.12882842   0.28808019   0.37026088
  8    6.000   0.12144800   0.20475725   0.37013687
  8    6.000   0.00001250   0.16667399   0.48587490
  8    6.000   0.08318105   0.24998649   0.48591457
  8    6.000   0.12849291   0.37849291   0.14067339
  8    6.000   0.12150709   0.46182624   0.14067339
  8    6.000   0.04515958   0.37150709   0.14067339
  8    6.000   0.03817376   0.45484042   0.14067339
  8    6.000   0.08333333   0.41666667   0.10263373
  8    6.000   0.00000000   0.33333333   0.10263373
  8    6.000   0.00000000   0.33333333   0.17871304
  8    6.000   0.08333333   0.41666667   0.17871304
  8    6.000   0.12872934   0.37864099   0.29333874
  8    6.000   0.12145578   0.46198741   0.29330326
  8    6.000   0.04533089   0.37140886   0.29329581
  8    6.000   0.03807133   0.45472041   0.29327830
  8    6.000   0.08333333   0.41666667   0.25479235
  8    6.000   0.00000000   0.33333333   0.25479235
  8    6.000   0.04515958   0.46182624   0.21675270
  8    6.000   0.03817376   0.37849291   0.21675270
  8    6.000   0.12849291   0.45484042   0.21675270
  8    6.000   0.12150709   0.37150709   0.21675270
  8    6.000   0.99999095   0.33340635   0.33172803
  8    6.000   0.08343584   0.41678029   0.33175694
  8    6.000   0.12918548   0.37912632   0.44778943
  8    6.000   0.12081447   0.46254898   0.44763667
  8    6.000   0.04580958   0.37090654   0.44751307
  8    6.000   0.03747350   0.45417649   0.44747791
  8    6.000   0.08352090   0.41657513   0.40870686
  8    6.000   0.99999333   0.33334300   0.40863571
  8    6.000   0.04540212   0.46199352   0.37027112
  8    6.000   0.03807647   0.37869206   0.37022777
  8    6.000   0.12889818   0.45468480   0.37038396
  8    6.000   0.12148236   0.37136798   0.37015701
  8    6.000   0.00000205   0.33336154   0.48589404
  8    6.000   0.08306992   0.41671288   0.48597330
  8    6.000   0.12849291   0.54515958   0.14067339
  8    6.000   0.12150709   0.62849291   0.14067339
  8    6.000   0.04515958   0.53817376   0.14067339
  8    6.000   0.03817376   0.62150709   0.14067339
  8    6.000   0.08333333   0.58333333   0.10263373
  8    6.000   0.00000000   0.50000000   0.10263373
  8    6.000   0.00000000   0.50000000   0.17871304
  8    6.000   0.08333333   0.58333333   0.17871304
  8    6.000   0.12874977   0.54526897   0.29338653
  8    6.000   0.12144151   0.62861380   0.29326935
  8    6.000   0.04533204   0.53804190   0.29329885
  8    6.000   0.03806988   0.62135894   0.29327524
  8    6.000   0.08333333   0.58333333   0.25479235
  8    6.000   0.00000000   0.50000000   0.25479235
  8    6.000   0.04515958   0.62849291   0.21675270
  8    6.000   0.03817376   0.54515958   0.21675270
  8    6.000   0.12849291   0.62150709   0.21675270
  8    6.000   0.12150709   0.53817376   0.21675270
  8    6.000   0.00000000   0.50000000   0.33173623
  8    6.000   0.08341168   0.58340846   0.33175130
  8    6.000   0.12930181   0.54581962   0.44788885
  8    6.000   0.12086461   0.62912422   0.44756524
  8    6.000   0.04586650   0.53748980   0.44756700
  8    6.000   0.03757452   0.62085660   0.44747002
  8    6.000   0.08353416   0.58312631   0.40870908
  8    6.000   0.00000000   0.50000000   0.40866295
  8    6.000   0.04539793   0.62859844   0.37027287
  8    6.000   0.03806813   0.54530702   0.37021592
  8    6.000   0.12886710   0.62124517   0.37034386
  8    6.000   0.12149011   0.53794167   0.37012680
  8    6.000   0.00000000   0.50000000   0.48590878
  8    6.000   0.08312612   0.58348683   0.48598319
  8    6.000   0.12849291   0.71182624   0.14067339
  8    6.000   0.12150709   0.79515958   0.14067339
  8    6.000   0.04515958   0.70484042   0.14067339
  8    6.000   0.03817376   0.78817376   0.14067339
  8    6.000   0.08333333   0.75000000   0.10263373
  8    6.000   0.00000000   0.66666667   0.10263373
  8    6.000   0.00000000   0.66666667   0.17871304
  8    6.000   0.08333333   0.75000000   0.17871304
  8    6.000   0.12871123   0.71188246   0.29335885
  8    6.000   0.12145365   0.79522544   0.29324963
  8    6.000   0.04530026   0.70468749   0.29327633
  8    6.000   0.03807828   0.78803038   0.29326832
  8    6.000   0.08333333   0.75000000   0.25479235
  8    6.000   0.00000000   0.66666667   0.25479235
  8    6.000   0.04515958   0.79515958   0.21675270
  8    6.000   0.03817376   0.71182624   0.21675270
  8    6.000   0.12849291   0.78817376   0.21675270
  8    6.000   0.12150709   0.70484042   0.21675270
  8    6.000   0.00000905   0.66659365   0.33172803
  8    6.000   0.08336879   0.74998063   0.33170970
  8    6.000   0.12910475   0.71239589   0.44766321
  8    6.000   0.12094733   0.79569681   0.44748853
  8    6.000   0.04573169   0.70424013   0.44753271
  8    6.000   0.03763092   0.78760452   0.44746203
  8    6.000   0.08340849   0.74987299   0.40862999
  8    6.000   0.00000667   0.66665700   0.40863571
  8    6.000   0.04534063   0.79524917   0.37019856
  8    6.000   0.03804128   0.71192142   0.37017604
  8    6.000   0.12873732   0.78792141   0.37019788
  8    6.000   0.12146542   0.70457721   0.37016202
  8    6.000   0.99999795   0.66663846   0.48589404
  8    6.000   0.08318529   0.75011909   0.48592215
  8    6.000   0.12849291   0.87849291   0.14067339
  8    6.000   0.12150709   0.96182624   0.14067339
  8    6.000   0.04515958   0.87150709   0.14067339
  8    6.000   0.03817376   0.95484042   0.14067339
  8    6.000   0.08333333   0.91666667   0.10263373
  8    6.000   0.00000000   0.83333333   0.10263373
  8    6.000   0.00000000   0.83333333   0.17871304
  8    6.000   0.08333333   0.91666667   0.17871304
  8    6.000   0.12865915   0.87855363   0.29330104
  8    6.000   0.12143688   0.96191357   0.29325961
  8    6.000   0.04528053   0.87136737   0.29325509
  8    6.000   0.03807268   0.95471911   0.29325332
  8    6.000   0.08333333   0.91666667   0.25479235
  8    6.000   0.00000000   0.83333333   0.25479235
  8    6.000   0.04515958   0.96182624   0.21675270
  8    6.000   0.03817376   0.87849291   0.21675270
  8    6.000   0.12849291   0.95484042   0.21675270
  8    6.000   0.12150709   0.87150709   0.21675270
  8    6.000   0.99998941   0.83328270   0.33169770
  8    6.000   0.08331932   0.91664544   0.33168337
  8    6.000   0.12903514   0.87902764   0.44751741
  8    6.000   0.12093599   0.96236683   0.44749450
  8    6.000   0.04569994   0.87094950   0.44749808
  8    6.000   0.03762656   0.95428436   0.44747598
  8    6.000   0.08336896   0.91661681   0.40859703
  8    6.000   0.00000765   0.83332352   0.40860687
  8    6.000   0.04532243   0.96196176   0.37017104
  8    6.000   0.03802973   0.87860392   0.37016124
  8    6.000   0.12866244   0.95464834   0.37013182
  8    6.000   0.12140723   0.87128719   0.37012624
  8    6.000   0.99998750   0.83332601   0.48587490
  8    6.000   0.08330144   0.91667913   0.48588935
  8    6.000   0.29515958   0.04515958   0.14067339
  8    6.000   0.28817376   0.12849291   0.14067339
  8    6.000   0.21182624   0.03817376   0.14067339
  8    6.000   0.20484042   0.12150709   0.14067339
  8    6.000   0.25000000   0.08333333   0.10263373
  8    6.000   0.16666667   0.00000000   0.10263373
  8    6.000   0.16666667   0.00000000   0.17871304
  8    6.000   0.25000000   0.08333333   0.17871304
  8    6.000   0.29532086   0.04528398   0.29326900
  8    6.000   0.28818290   0.12870718   0.29342902
  8    6.000   0.21199279   0.03805789   0.29323527
  8    6.000   0.20479812   0.12143085   0.29323493
  8    6.000   0.25000000   0.08333333   0.25479235
  8    6.000   0.16666667   0.00000000   0.25479235
  8    6.000   0.21182624   0.12849291   0.21675270
  8    6.000   0.20484042   0.04515958   0.21675270
  8    6.000   0.29515958   0.12150709   0.21675270
  8    6.000   0.28817376   0.03817376   0.21675270
  8    6.000   0.16676628   0.99997968   0.33168721
  8    6.000   0.24992358   0.08329207   0.33168678
  8    6.000   0.29570293   0.04565845   0.44749815
  8    6.000   0.28752543   0.12896811   0.44766533
  8    6.000   0.21234778   0.03757928   0.44735146
  8    6.000   0.20426036   0.12091782   0.44741960
  8    6.000   0.25018584   0.08339613   0.40858671
  8    6.000   0.16654155   0.99998621   0.40858893
  8    6.000   0.21204735   0.12868970   0.37021602
  8    6.000   0.20476014   0.04528596   0.37021565
  8    6.000   0.29542555   0.12142520   0.36999278
  8    6.000   0.28809440   0.03803044   0.37013542
  8    6.000   0.16679257   0.99992372   0.48584360
  8    6.000   0.24974391   0.08303862   0.48588048
  8    6.000   0.29515958   0.21182624   0.14067339
  8    6.000   0.28817376   0.29515958   0.14067339
  8    6.000   0.21182624   0.20484042   0.14067339
  8    6.000   0.20484042   0.28817376   0.14067339
  8    6.000   0.25000000   0.25000000   0.10263373
  8    6.000   0.16666667   0.16666667   0.10263373
  8    6.000   0.16666667   0.16666667   0.17871304
  8    6.000   0.25000000   0.25000000   0.17871304
  8    6.000   0.29543223   0.21207775   0.29334934
  8    6.000   0.28815402   0.29542054   0.29341876
  8    6.000   0.21208055   0.20475528   0.29327433
  8    6.000   0.20478962   0.28806941   0.29323572
  8    6.000   0.25000000   0.25000000   0.25479235
  8    6.000   0.16666667   0.16666667   0.25479235
  8    6.000   0.21182624   0.29515958   0.21675270
  8    6.000   0.20484042   0.21182624   0.21675270
  8    6.000   0.29515958   0.28817376   0.21675270
  8    6.000   0.28817376   0.20484042   0.21675270
  8    6.000   0.16686226   0.16679003   0.33172099
  8    6.000   0.24995756   0.25014816   0.33179136
  8    6.000   0.29564020   0.21238308   0.44787450
  8    6.000   0.28750793   0.29608224   0.44820415
  8    6.000   0.21234633   0.20432863   0.44739892
  8    6.000   0.20428931   0.28759851   0.44745162
  8    6.000   0.25058813   0.25014694   0.40880389
  8    6.000   0.16652852   0.16665069   0.40862591
  8    6.000   0.21224784   0.29545680   0.37047742
  8    6.000   0.20487537   0.21207296   0.37039608
  8    6.000   0.29567932   0.28801945   0.37019218
  8    6.000   0.28818545   0.20479167   0.37012613
  8    6.000   0.16677214   0.16651991   0.48587584
  8    6.000   0.24929918   0.24977382   0.48610712
  8    6.000   0.29515958   0.37849291   0.14067339
  8    6.000   0.28817376   0.46182624   0.14067339
  8    6.000   0.21182624   0.37150709   0.14067339
  8    6.000   0.20484042   0.45484042   0.14067339
  8    6.000   0.25000000   0.41666667   0.10263373
  8    6.000   0.16666667   0.33333333   0.10263373
  8    6.000   0.16666667   0.33333333   0.17871304
  8    6.000   0.25000000   0.41666667   0.17871304
  8    6.000   0.29550930   0.37878813   0.29341048
  8    6.000   0.28820973   0.46207688   0.29343839
  8    6.000   0.21212712   0.37136303   0.29331688
  8    6.000   0.20478278   0.45468500   0.29320028
  8    6.000   0.25000000   0.41666667   0.25479235
  8    6.000   0.16666667   0.33333333   0.25479235
  8    6.000   0.21182624   0.46182624   0.21675270
  8    6.000   0.20484042   0.37849291   0.21675270
  8    6.000   0.29515958   0.45484042   0.21675270
  8    6.000   0.28817376   0.37150709   0.21675270
  8    6.000   0.16700096   0.33335472   0.33181123
  8    6.000   0.24993966   0.41691371   0.33182746
  8    6.000   0.29652928   0.37988487   0.44957884
  8    6.000   0.28654214   0.46349213   0.44820351
  8    6.000   0.21284513   0.37082965   0.44782968
  8    6.000   0.20385892   0.45386285   0.44729618
  8    6.000   0.25124019   0.41611865   0.40902483
  8    6.000   0.16664875   0.33356988   0.40880409
  8    6.000   0.21235741   0.46200114   0.37080579
  8    6.000   0.20490015   0.37877988   0.37046735
  8    6.000   0.29580537   0.45451615   0.37031053
  8    6.000   0.28819163   0.37130401   0.37000531
  8    6.000   0.16693752   0.33296768   0.48602186
  8    6.000   0.24842823   0.41774550   0.48664654
  8    6.000   0.29515958   0.54515958   0.14067339
  8    6.000   0.28817376   0.62849291   0.14067339
  8    6.000   0.21182624   0.53817376   0.14067339
  8    6.000   0.20484042   0.62150709   0.14067339
  8    6.000   0.25000000   0.58333333   0.10263373
  8    6.000   0.16666667   0.50000000   0.10263373
  8    6.000   0.16666667   0.50000000   0.17871304
  8    6.000   0.25000000   0.58333333   0.17871304
  8    6.000   0.29560149   0.54533896   0.29352335
  8    6.000   0.28814050   0.62862391   0.29321375
  8    6.000   0.21215774   0.53797234   0.29336937
  8    6.000   0.20477066   0.62130279   0.29323645
  8    6.000   0.25000000   0.58333333   0.25479235
  8    6.000   0.16666667   0.50000000   0.25479235
  8    6.000   0.21182624   0.62849291   0.21675270
  8    6.000   0.20484042   0.54515958   0.21675270
  8    6.000   0.29515958   0.62150709   0.21675270
  8    6.000   0.28817376   0.53817376   0.21675270
  8    6.000   0.16708834   0.49974655   0.33184411
  8    6.000   0.25014238   0.58367884   0.33182561
  8    6.000   0.29668238   0.54676374   0.44939954
  8    6.000   0.28690283   0.62983884   0.44785077
  8    6.000   0.21300745   0.53728685   0.44824454
  8    6.000   0.20413721   0.62070802   0.44748271
  8    6.000   0.25082045   0.58239778   0.40903435
  8    6.000   0.16671523   0.50051736   0.40886213
  8    6.000   0.21234281   0.62855791   0.37074523
  8    6.000   0.20490856   0.54533755   0.37030756
  8    6.000   0.29575285   0.62106501   0.37068046
  8    6.000   0.28824415   0.53782121   0.36995338
  8    6.000   0.16679492   0.49944460   0.48619317
  8    6.000   0.24886366   0.58415900   0.48670866
  8    6.000   0.29515958   0.71182624   0.14067339
  8    6.000   0.28817376   0.79515958   0.14067339
  8    6.000   0.21182624   0.70484042   0.14067339
  8    6.000   0.20484042   0.78817376   0.14067339
  8    6.000   0.25000000   0.75000000   0.10263373
  8    6.000   0.16666667   0.66666667   0.10263373
  8    6.000   0.16666667   0.66666667   0.17871304
  8    6.000   0.25000000   0.75000000   0.17871304
  8    6.000   0.29546565   0.71194663   0.29335155
  8    6.000   0.28814479   0.79521766   0.29325705
  8    6.000   0.21209157   0.70463500   0.29334712
  8    6.000   0.20482201   0.78796467   0.29330487
  8    6.000   0.25000000   0.75000000   0.25479235
  8    6.000   0.16666667   0.66666667   0.25479235
  8    6.000   0.21182624   0.79515958   0.21675270
  8    6.000   0.20484042   0.71182624   0.21675270
  8    6.000   0.29515958   0.78817376   0.21675270
  8    6.000   0.28817376   0.70484042   0.21675270
  8    6.000   0.16697671   0.66634220   0.33181773
  8    6.000   0.25024732   0.74995113   0.33182490
  8    6.000   0.29623959   0.71256506   0.44825667
  8    6.000   0.28758167   0.79573646   0.44758919
  8    6.000   0.21252562   0.70421168   0.44775392
  8    6.000   0.20432516   0.78759944   0.44737470
  8    6.000   0.25028703   0.74952923   0.40884302
  8    6.000   0.16667297   0.66689415   0.40878670
  8    6.000   0.21214812   0.79515258   0.37039140
  8    6.000   0.20481689   0.71190335   0.37021147
  8    6.000   0.29552399   0.78774672   0.37044076
  8    6.000   0.28817100   0.70436115   0.37038332
  8    6.000   0.16672198   0.66650132   0.48600565
  8    6.000   0.24951687   0.75048893   0.48609483
  8    6.000   0.29515958   0.87849291   0.14067339
  8    6.000   0.28817376   0.96182624   0.14067339
  8    6.000   0.21182624   0.87150709   0.14067339
  8    6.000   0.20484042   0.95484042   0.14067339
  8    6.000   0.25000000   0.91666667   0.10263373
  8    6.000   0.16666667   0.83333333   0.10263373
  8    6.000   0.16666667   0.83333333   0.17871304
  8    6.000   0.25000000   0.91666667   0.17871304
  8    6.000   0.29539446   0.87847235   0.29340506
  8    6.000   0.28812390   0.96188120   0.29326422
  8    6.000   0.21202137   0.87131317   0.29325114
  8    6.000   0.20478349   0.95468280   0.29325491
  8    6.000   0.25000000   0.91666667   0.25479235
  8    6.000   0.16666667   0.83333333   0.25479235
  8    6.000   0.21182624   0.96182624   0.21675270
  8    6.000   0.20484042   0.87849291   0.21675270
  8    6.000   0.29515958   0.95484042   0.21675270
  8    6.000   0.28817376   0.87150709   0.21675270
  8    6.000   0.16682444   0.83316884   0.33172719
  8    6.000   0.24999444   0.91662585   0.33169878
  8    6.000   0.29571793   0.87903006   0.44767035
  8    6.000   0.28755444   0.96236483   0.44748324
  8    6.000   0.21236304   0.87095609   0.44747005
  8    6.000   0.20425452   0.95424193   0.44737200
  8    6.000   0.25016134   0.91649778   0.40860790
  8    6.000   0.16659443   0.83338694   0.40862334
  8    6.000   0.21200637   0.96188410   0.37022555
  8    6.000   0.20477883   0.87852248   0.37017483
  8    6.000   0.29534964   0.95462095   0.37013720
  8    6.000   0.28813427   0.87116000   0.37011256
  8    6.000   0.16671732   0.83326504   0.48585758
  8    6.000   0.24978532   0.91676081   0.48588471
  8    6.000   0.46182624   0.04515958   0.14067339
  8    6.000   0.45484042   0.12849291   0.14067339
  8    6.000   0.37849291   0.03817376   0.14067339
  8    6.000   0.37150709   0.12150709   0.14067339
  8    6.000   0.41666667   0.08333333   0.10263373
  8    6.000   0.33333333   0.00000000   0.10263373
  8    6.000   0.33333333   0.00000000   0.17871304
  8    6.000   0.41666667   0.08333333   0.17871304
  8    6.000   0.46193577   0.04531839   0.29329627
  8    6.000   0.45473969   0.12873708   0.29335292
  8    6.000   0.37864251   0.03808426   0.29329469
  8    6.000   0.37142102   0.12146847   0.29325578
  8    6.000   0.41666667   0.08333333   0.25479235
  8    6.000   0.33333333   0.00000000   0.25479235
  8    6.000   0.37849291   0.12849291   0.21675270
  8    6.000   0.37150709   0.04515958   0.21675270
  8    6.000   0.46182624   0.12150709   0.21675270
  8    6.000   0.45484042   0.03817376   0.21675270
  8    6.000   0.33341692   0.99997924   0.33170572
  8    6.000   0.41665633   0.08349531   0.33176258
  8    6.000   0.46242171   0.04566238   0.44756494
  8    6.000   0.45434428   0.12884205   0.44774818
  8    6.000   0.37908107   0.03742823   0.44736853
  8    6.000   0.37090133   0.12076501   0.44746830
  8    6.000   0.41682738   0.08331656   0.40868400
  8    6.000   0.33324326   0.99994032   0.40859381
  8    6.000   0.37876712   0.12881301   0.37038528
  8    6.000   0.37142860   0.04533209   0.37022681
  8    6.000   0.46209922   0.12149572   0.37027599
  8    6.000   0.45470518   0.03805584   0.37017548
  8    6.000   0.33338450   0.99990012   0.48584952
  8    6.000   0.41630685   0.08286083   0.48591858
  8    6.000   0.46182624   0.21182624   0.14067339
  8    6.000   0.45484042   0.29515958   0.14067339
  8    6.000   0.37849291   0.20484042   0.14067339
  8    6.000   0.37150709   0.28817376   0.14067339
  8    6.000   0.41666667   0.25000000   0.10263373
  8    6.000   0.33333333   0.16666667   0.10263373
  8    6.000   0.33333333   0.16666667   0.17871304
  8    6.000   0.41666667   0.25000000   0.17871304
  8    6.000   0.46203361   0.21212439   0.29332083
  8    6.000   0.45484927   0.29562963   0.29338438
  8    6.000   0.37880244   0.20483768   0.29334566
  8    6.000   0.37153535   0.28812745   0.29332603
  8    6.000   0.41666667   0.25000000   0.25479235
  8    6.000   0.33333333   0.16666667   0.25479235
  8    6.000   0.37849291   0.29515958   0.21675270
  8    6.000   0.37150709   0.21182624   0.21675270
  8    6.000   0.46182624   0.28817376   0.21675270
  8    6.000   0.45484042   0.20484042   0.21675270
  8    6.000   0.33386338   0.16707490   0.33183790
  8    6.000   0.41694052   0.25040995   0.33198420
  8    6.000   0.46223566   0.21213948   0.44821625
  8    6.000   0.45517186   0.29572118   0.45160176
  8    6.000   0.37897679   0.20400243   0.44688758
  8    6.000   0.37073848   0.28707090   0.44792356
  8    6.000   0.41806733   0.25138415   0.40925926
  8    6.000   0.33268131   0.16636913   0.40871859
  8    6.000   0.37903963   0.29566436   0.37068819
  8    6.000   0.37171947   0.21230573   0.37100911
  8    6.000   0.46289247   0.28822557   0.37093814
  8    6.000   0.45481807   0.20494226   0.37053067
  8    6.000   0.33364661   0.16645847   0.48589822
  8    6.000   0.41407425   0.24646158   0.48663243
  8    6.000   0.46182624   0.37849291   0.14067339
  8    6.000   0.45484042   0.46182624   0.14067339
  8    6.000   0.37849291   0.37150709   0.14067339
  8    6.000   0.37150709   0.45484042   0.14067339
  8    6.000   0.41666667   0.41666667   0.10263373
  8    6.000   0.33333333   0.33333333   0.10263373
  8    6.000   0.33333333   0.33333333   0.17871304
  8    6.000   0.41666667   0.41666667   0.17871304
  8    6.000   0.46224005   0.37864714   0.29340686
  8    6.000   0.45489595   0.46211419   0.29357754
  8    6.000   0.37896982   0.37142398   0.29329436
  8    6.000   0.37162494   0.45459733   0.29341101
  8    6.000   0.41666667   0.41666667   0.25479235
  8    6.000   0.33333333   0.33333333   0.25479235
  8    6.000   0.37849291   0.46182624   0.21675270
  8    6.000   0.37150709   0.37849291   0.21675270
  8    6.000   0.46182624   0.45484042   0.21675270
  8    6.000   0.45484042   0.37150709   0.21675270
  8    6.000   0.33406470   0.33363587   0.33182045
  8    6.000   0.41695530   0.41656183   0.33220757
  8    6.000   0.46209245   0.37663764   0.45224861
  8    6.000   0.45534242   0.46169726   0.45080305
  8    6.000   0.37968887   0.36977443   0.44757346
  8    6.000   0.36997614   0.45338348   0.44766061
  8    6.000   0.41887246   0.41661321   0.40967866
  8    6.000   0.33260183   0.33357199   0.40895829
  8    6.000   0.37922994   0.46200241   0.37127746
  8    6.000   0.37170663   0.37893673   0.37118841
  8    6.000   0.46272150   0.45460647   0.37084801
  8    6.000   0.45483418   0.37083021   0.37114371
  8    6.000   0.33415412   0.33238318   0.48687157
  8    6.000   0.41111314   0.41619567   0.48648891
  8    6.000   0.46182624   0.54515958   0.14067339
  8    6.000   0.45484042   0.62849291   0.14067339
  8    6.000   0.37849291   0.53817376   0.14067339
  8    6.000   0.37150709   0.62150709   0.14067339
  8    6.000   0.41666667   0.58333333   0.10263373
  8    6.000   0.33333333   0.50000000   0.10263373
  8    6.000   0.33333333   0.50000000   0.17871304
  8    6.000   0.41666667   0.58333333   0.17871304
  8    6.000   0.46232778   0.54517351   0.29331467
  8    6.000   0.45496580   0.62862981   0.29352259
  8    6.000   0.37903124   0.53790179   0.29328850
  8    6.000   0.37164699   0.62118900   0.29353316
  8    6.000   0.41666667   0.58333333   0.25479235
  8    6.000   0.33333333   0.50000000   0.25479235
  8    6.000   0.37849291   0.62849291   0.21675270
  8    6.000   0.37150709   0.54515958   0.21675270
  8    6.000   0.46182624   0.62150709   0.21675270
  8    6.000   0.45484042   0.53817376   0.21675270
  8    6.000   0.33436259   0.49996963   0.33194977
  8    6.000   0.41723828   0.58271746   0.33211944
  8    6.000   0.46181909   0.54449080   0.44905000
  8    6.000   0.45577109   0.62947149   0.45297647
  8    6.000   0.37938624   0.53658875   0.44768996
  8    6.000   0.37019540   0.62005386   0.44840961
  8    6.000   0.41803988   0.58511078   0.40957666
  8    6.000   0.33226246   0.50030007   0.40904828
  8    6.000   0.37919660   0.62857653   0.37045821
  8    6.000   0.37182615   0.54539501   0.37131883
  8    6.000   0.46288963   0.62100021   0.37070526
  8    6.000   0.45485382   0.53745964   0.37163349
  8    6.000   0.33281567   0.49897023   0.48660133
  8    6.000   0.41230182   0.58108452   0.48662468
  8    6.000   0.46182624   0.71182624   0.14067339
  8    6.000   0.45484042   0.79515958   0.14067339
  8    6.000   0.37849291   0.70484042   0.14067339
  8    6.000   0.37150709   0.78817376   0.14067339
  8    6.000   0.41666667   0.75000000   0.10263373
  8    6.000   0.33333333   0.66666667   0.10263373
  8    6.000   0.33333333   0.66666667   0.17871304
  8    6.000   0.41666667   0.75000000   0.17871304
  8    6.000   0.46222953   0.71170835   0.29332082
  8    6.000   0.45478183   0.79508313   0.29336832
  8    6.000   0.37885206   0.70452713   0.29332669
  8    6.000   0.37151778   0.78781366   0.29341544
  8    6.000   0.41666667   0.75000000   0.25479235
  8    6.000   0.33333333   0.66666667   0.25479235
  8    6.000   0.37849291   0.79515958   0.21675270
  8    6.000   0.37150709   0.71182624   0.21675270
  8    6.000   0.46182624   0.78817376   0.21675270
  8    6.000   0.45484042   0.70484042   0.21675270
  8    6.000   0.33349942   0.66640420   0.33180571
  8    6.000   0.41709183   0.74945573   0.33201480
  8    6.000   0.46299396   0.71170456   0.45087476
  8    6.000   0.45439196   0.79541527   0.44800363
  8    6.000   0.37962621   0.70342604   0.44932903
  8    6.000   0.37086996   0.78728135   0.44723993
  8    6.000   0.41737550   0.74848438   0.40939902
  8    6.000   0.33405747   0.66673703   0.40901759
  8    6.000   0.37889397   0.79484432   0.37086399
  8    6.000   0.37150123   0.71175998   0.37043438
  8    6.000   0.46203473   0.78753271   0.37062487
  8    6.000   0.45465039   0.70359509   0.37114908
  8    6.000   0.33223082   0.66569229   0.48703362
  8    6.000   0.41467944   0.75235245   0.48678758
  8    6.000   0.46182624   0.87849291   0.14067339
  8    6.000   0.45484042   0.96182624   0.14067339
  8    6.000   0.37849291   0.87150709   0.14067339
  8    6.000   0.37150709   0.95484042   0.14067339
  8    6.000   0.41666667   0.91666667   0.10263373
  8    6.000   0.33333333   0.83333333   0.10263373
  8    6.000   0.33333333   0.83333333   0.17871304
  8    6.000   0.41666667   0.91666667   0.17871304
  8    6.000   0.46198400   0.87849592   0.29328819
  8    6.000   0.45474407   0.96188337   0.29328680
  8    6.000   0.37867605   0.87121915   0.29332390
  8    6.000   0.37143000   0.95465304   0.29328948
  8    6.000   0.41666667   0.91666667   0.25479235
  8    6.000   0.33333333   0.83333333   0.25479235
  8    6.000   0.37849291   0.96182624   0.21675270
  8    6.000   0.37150709   0.87849291   0.21675270
  8    6.000   0.46182624   0.95484042   0.21675270
  8    6.000   0.45484042   0.87150709   0.21675270
  8    6.000   0.33363874   0.83282875   0.33186050
  8    6.000   0.41676197   0.91651246   0.33174976
  8    6.000   0.46225629   0.87901212   0.44762664
  8    6.000   0.45423693   0.96239314   0.44754285
  8    6.000   0.37903925   0.87085583   0.44764864
  8    6.000   0.37084499   0.95416058   0.44742580
  8    6.000   0.41662876   0.91653594   0.40869271
  8    6.000   0.33317969   0.83356604   0.40878760
  8    6.000   0.37864610   0.96183988   0.37021028
  8    6.000   0.37143609   0.87839938   0.37019587
  8    6.000   0.46198547   0.95458235   0.37025668
  8    6.000   0.45463415   0.87106960   0.37035377
  8    6.000   0.33336330   0.83295954   0.48592898
  8    6.000   0.41640176   0.91687026   0.48596596
  8    6.000   0.62849291   0.04515958   0.14067339
  8    6.000   0.62150709   0.12849291   0.14067339
  8    6.000   0.54515958   0.03817376   0.14067339
  8    6.000   0.53817376   0.12150709   0.14067339
  8    6.000   0.58333333   0.08333333   0.10263373
  8    6.000   0.50000000   0.00000000   0.10263373
  8    6.000   0.50000000   0.00000000   0.17871304
  8    6.000   0.58333333   0.08333333   0.17871304
  8    6.000   0.62857000   0.04534696   0.29328948
  8    6.000   0.62132395   0.12878085   0.29332390
  8    6.000   0.54525593   0.03811663   0.29328680
  8    6.000   0.53801600   0.12150408   0.29328819
  8    6.000   0.58333333   0.08333333   0.25479235
  8    6.000   0.50000000   0.00000000   0.25479235
  8    6.000   0.54515958   0.12849291   0.21675270
  8    6.000   0.53817376   0.04515958   0.21675270
  8    6.000   0.62849291   0.12150709   0.21675270
  8    6.000   0.62150709   0.03817376   0.21675270
  8    6.000   0.50000000   0.00000000   0.33171925
  8    6.000   0.58323803   0.08348754   0.33174976
  8    6.000   0.62915501   0.04583942   0.44742580
  8    6.000   0.62096075   0.12914417   0.44764864
  8    6.000   0.54576307   0.03760686   0.44754285
  8    6.000   0.53774371   0.12098788   0.44762664
  8    6.000   0.58337124   0.08346406   0.40869271
  8    6.000   0.50000000   0.00000000   0.40865937
  8    6.000   0.54536585   0.12893040   0.37035377
  8    6.000   0.53801453   0.04541765   0.37025668
  8    6.000   0.62856391   0.12160062   0.37019587
  8    6.000   0.62135390   0.03816012   0.37021028
  8    6.000   0.50000000   0.00000000   0.48595122
  8    6.000   0.58359824   0.08312974   0.48596596
  8    6.000   0.62849291   0.21182624   0.14067339
  8    6.000   0.62150709   0.29515958   0.14067339
  8    6.000   0.54515958   0.20484042   0.14067339
  8    6.000   0.53817376   0.28817376   0.14067339
  8    6.000   0.58333333   0.25000000   0.10263373
  8    6.000   0.50000000   0.16666667   0.10263373
  8    6.000   0.50000000   0.16666667   0.17871304
  8    6.000   0.58333333   0.25000000   0.17871304
  8    6.000   0.62848222   0.21218634   0.29341544
  8    6.000   0.62114794   0.29547287   0.29332669
  8    6.000   0.54521817   0.20491687   0.29336832
  8    6.000   0.53777047   0.28829165   0.29332082
  8    6.000   0.58333333   0.25000000   0.25479235
  8    6.000   0.50000000   0.16666667   0.25479235
  8    6.000   0.54515958   0.29515958   0.21675270
  8    6.000   0.53817376   0.21182624   0.21675270
  8    6.000   0.62849291   0.28817376   0.21675270
  8    6.000   0.62150709   0.20484042   0.21675270
  8    6.000   0.50008501   0.16701411   0.33186173
  8    6.000   0.58290817   0.25054427   0.33201480
  8    6.000   0.62913004   0.21271865   0.44723993
  8    6.000   0.62037379   0.29657396   0.44932903
  8    6.000   0.54560804   0.20458473   0.44800363
  8    6.000   0.53700604   0.28829544   0.45087476
  8    6.000   0.58262450   0.25151562   0.40939902
  8    6.000   0.50000691   0.16690485   0.40889748
  8    6.000   0.54534961   0.29640491   0.37114908
  8    6.000   0.53796527   0.21246729   0.37062487
  8    6.000   0.62849877   0.28824002   0.37043438
  8    6.000   0.62110603   0.20515568   0.37086399
  8    6.000   0.50030055   0.16571175   0.48633462
  8    6.000   0.58532056   0.24764755   0.48678758
  8    6.000   0.62849291   0.37849291   0.14067339
  8    6.000   0.62150709   0.46182624   0.14067339
  8    6.000   0.54515958   0.37150709   0.14067339
  8    6.000   0.53817376   0.45484042   0.14067339
  8    6.000   0.58333333   0.41666667   0.10263373
  8    6.000   0.50000000   0.33333333   0.10263373
  8    6.000   0.50000000   0.33333333   0.17871304
  8    6.000   0.58333333   0.41666667   0.17871304
  8    6.000   0.62835301   0.37881100   0.29353316
  8    6.000   0.62096876   0.46209821   0.29328850
  8    6.000   0.54503420   0.37137019   0.29352259
  8    6.000   0.53767222   0.45482649   0.29331467
  8    6.000   0.58333333   0.41666667   0.25479235
  8    6.000   0.50000000   0.33333333   0.25479235
  8    6.000   0.54515958   0.46182624   0.21675270
  8    6.000   0.53817376   0.37849291   0.21675270
  8    6.000   0.62849291   0.45484042   0.21675270
  8    6.000   0.62150709   0.37150709   0.21675270
  8    6.000   0.49996164   0.33339068   0.33210603
  8    6.000   0.58276172   0.41728254   0.33211944
  8    6.000   0.62980460   0.37994614   0.44840961
  8    6.000   0.62061376   0.46341125   0.44768996
  8    6.000   0.54422891   0.37052851   0.45297647
  8    6.000   0.53818091   0.45550920   0.44905000
  8    6.000   0.58196012   0.41488922   0.40957666
  8    6.000   0.50015130   0.33416636   0.41101976
  8    6.000   0.54514618   0.46254036   0.37163349
  8    6.000   0.53711037   0.37899979   0.37070526
  8    6.000   0.62817385   0.45460499   0.37131883
  8    6.000   0.62080340   0.37142347   0.37045821
  8    6.000   0.50086728   0.32189476   0.49893589
  8    6.000   0.58769818   0.41891548   0.48662468
  8    6.000   0.62849291   0.54515958   0.14067339
  8    6.000   0.62150709   0.62849291   0.14067339
  8    6.000   0.54515958   0.53817376   0.14067339
  8    6.000   0.53817376   0.62150709   0.14067339
  8    6.000   0.58333333   0.58333333   0.10263373
  8    6.000   0.50000000   0.50000000   0.10263373
  8    6.000   0.50000000   0.50000000   0.17871304
  8    6.000   0.58333333   0.58333333   0.17871304
  8    6.000   0.62837506   0.54540267   0.29341101
  8    6.000   0.62103018   0.62857602   0.29329436
  8    6.000   0.54510405   0.53788581   0.29357754
  8    6.000   0.53775995   0.62135286   0.29340686
  8    6.000   0.58333333   0.58333333   0.25479235
  8    6.000   0.50000000   0.50000000   0.25479235
  8    6.000   0.54515958   0.62849291   0.21675270
  8    6.000   0.53817376   0.54515958   0.21675270
  8    6.000   0.62849291   0.62150709   0.21675270
  8    6.000   0.62150709   0.53817376   0.21675270
  8    6.000   0.50000000   0.50000000   0.33227787
  8    6.000   0.58304470   0.58343817   0.33220757
  8    6.000   0.63002386   0.54661652   0.44766061
  8    6.000   0.62031113   0.63022557   0.44757346
  8    6.000   0.54465758   0.53830274   0.45080305
  8    6.000   0.53790755   0.62336236   0.45224861
  8    6.000   0.58112754   0.58338679   0.40967866
  8    6.000   0.50000000   0.50000000   0.41071749
  8    6.000   0.54516582   0.62916979   0.37114371
  8    6.000   0.53727850   0.54539353   0.37084801
  8    6.000   0.62829337   0.62106327   0.37118841
  8    6.000   0.62077006   0.53799759   0.37127746
  8    6.000   0.50000000   0.50000000   0.49241494
  8    6.000   0.58888686   0.58380433   0.48648891
  8    6.000   0.62849291   0.71182624   0.14067339
  8    6.000   0.62150709   0.79515958   0.14067339
  8    6.000   0.54515958   0.70484042   0.14067339
  8    6.000   0.53817376   0.78817376   0.14067339
  8    6.000   0.58333333   0.75000000   0.10263373
  8    6.000   0.50000000   0.66666667   0.10263373
  8    6.000   0.50000000   0.66666667   0.17871304
  8    6.000   0.58333333   0.75000000   0.17871304
  8    6.000   0.62846465   0.71187255   0.29332603
  8    6.000   0.62119756   0.79516232   0.29334566
  8    6.000   0.54515073   0.70437037   0.29338438
  8    6.000   0.53796639   0.78787561   0.29332083
  8    6.000   0.58333333   0.75000000   0.25479235
  8    6.000   0.50000000   0.66666667   0.25479235
  8    6.000   0.54515958   0.79515958   0.21675270
  8    6.000   0.53817376   0.71182624   0.21675270
  8    6.000   0.62849291   0.78817376   0.21675270
  8    6.000   0.62150709   0.70484042   0.21675270
  8    6.000   0.50003836   0.66660932   0.33210603
  8    6.000   0.58305948   0.74959005   0.33198420
  8    6.000   0.62926152   0.71292910   0.44792356
  8    6.000   0.62102321   0.79599757   0.44688758
  8    6.000   0.54482814   0.70427882   0.45160176
  8    6.000   0.53776434   0.78786052   0.44821625
  8    6.000   0.58193267   0.74861585   0.40925926
  8    6.000   0.49984870   0.66583364   0.41101976
  8    6.000   0.54518193   0.79505774   0.37053067
  8    6.000   0.53710753   0.71177443   0.37093814
  8    6.000   0.62828053   0.78769427   0.37100911
  8    6.000   0.62096037   0.70433564   0.37068819
  8    6.000   0.49913272   0.67810524   0.49893589
  8    6.000   0.58592575   0.75353842   0.48663243
  8    6.000   0.62849291   0.87849291   0.14067339
  8    6.000   0.62150709   0.96182624   0.14067339
  8    6.000   0.54515958   0.87150709   0.14067339
  8    6.000   0.53817376   0.95484042   0.14067339
  8    6.000   0.58333333   0.91666667   0.10263373
  8    6.000   0.50000000   0.83333333   0.10263373
  8    6.000   0.50000000   0.83333333   0.17871304
  8    6.000   0.58333333   0.91666667   0.17871304
  8    6.000   0.62857898   0.87853153   0.29325578
  8    6.000   0.62135749   0.96191574   0.29329469
  8    6.000   0.54526031   0.87126292   0.29335292
  8    6.000   0.53806423   0.95468161   0.29329627
  8    6.000   0.58333333   0.91666667   0.25479235
  8    6.000   0.50000000   0.83333333   0.25479235
  8    6.000   0.54515958   0.96182624   0.21675270
  8    6.000   0.53817376   0.87849291   0.21675270
  8    6.000   0.62849291   0.95484042   0.21675270
  8    6.000   0.62150709   0.87150709   0.21675270
  8    6.000   0.49991499   0.83298589   0.33186173
  8    6.000   0.58334367   0.91650469   0.33176258
  8    6.000   0.62909867   0.87923499   0.44746830
  8    6.000   0.62091893   0.96257177   0.44736853
  8    6.000   0.54565572   0.87115795   0.44774818
  8    6.000   0.53757829   0.95433762   0.44756494
  8    6.000   0.58317262   0.91668344   0.40868400
  8    6.000   0.49999309   0.83309515   0.40889748
  8    6.000   0.54529482   0.96194416   0.37017548
  8    6.000   0.53790078   0.87850428   0.37027599
  8    6.000   0.62857140   0.95466791   0.37022681
  8    6.000   0.62123288   0.87118699   0.37038528
  8    6.000   0.49969945   0.83428825   0.48633462
  8    6.000   0.58369315   0.91713917   0.48591858
  8    6.000   0.79515958   0.04515958   0.14067339
  8    6.000   0.78817376   0.12849291   0.14067339
  8    6.000   0.71182624   0.03817376   0.14067339
  8    6.000   0.70484042   0.12150709   0.14067339
  8    6.000   0.75000000   0.08333333   0.10263373
  8    6.000   0.66666667   0.00000000   0.10263373
  8    6.000   0.66666667   0.00000000   0.17871304
  8    6.000   0.75000000   0.08333333   0.17871304
  8    6.000   0.79521651   0.04531720   0.29325491
  8    6.000   0.78797863   0.12868683   0.29325114
  8    6.000   0.71187610   0.03811880   0.29326422
  8    6.000   0.70460554   0.12152765   0.29340506
  8    6.000   0.75000000   0.08333333   0.25479235
  8    6.000   0.66666667   0.00000000   0.25479235
  8    6.000   0.71182624   0.12849291   0.21675270
  8    6.000   0.70484042   0.04515958   0.21675270
  8    6.000   0.79515958   0.12150709   0.21675270
  8    6.000   0.78817376   0.03817376   0.21675270
  8    6.000   0.66658308   0.00002076   0.33170572
  8    6.000   0.75000556   0.08337415   0.33169878
  8    6.000   0.79574548   0.04575807   0.44737200
  8    6.000   0.78763696   0.12904391   0.44747005
  8    6.000   0.71244556   0.03763517   0.44748324
  8    6.000   0.70428207   0.12096994   0.44767035
  8    6.000   0.74983866   0.08350222   0.40860790
  8    6.000   0.66675674   0.00005968   0.40859381
  8    6.000   0.71186573   0.12884000   0.37011256
  8    6.000   0.70465036   0.04537905   0.37013720
  8    6.000   0.79522117   0.12147752   0.37017483
  8    6.000   0.78799363   0.03811590   0.37022555
  8    6.000   0.66661550   0.00009988   0.48584952
  8    6.000   0.75021468   0.08323919   0.48588471
  8    6.000   0.79515958   0.21182624   0.14067339
  8    6.000   0.78817376   0.29515958   0.14067339
  8    6.000   0.71182624   0.20484042   0.14067339
  8    6.000   0.70484042   0.28817376   0.14067339
  8    6.000   0.75000000   0.25000000   0.10263373
  8    6.000   0.66666667   0.16666667   0.10263373
  8    6.000   0.66666667   0.16666667   0.17871304
  8    6.000   0.75000000   0.25000000   0.17871304
  8    6.000   0.79517799   0.21203533   0.29330487
  8    6.000   0.78790843   0.29536500   0.29334712
  8    6.000   0.71185521   0.20478234   0.29325705
  8    6.000   0.70453435   0.28805337   0.29335155
  8    6.000   0.75000000   0.25000000   0.25479235
  8    6.000   0.66666667   0.16666667   0.25479235
  8    6.000   0.71182624   0.29515958   0.21675270
  8    6.000   0.70484042   0.21182624   0.21675270
  8    6.000   0.79515958   0.28817376   0.21675270
  8    6.000   0.78817376   0.20484042   0.21675270
  8    6.000   0.66636126   0.16717125   0.33186050
  8    6.000   0.74975268   0.25004887   0.33182490
  8    6.000   0.79567484   0.21240056   0.44737470
  8    6.000   0.78747438   0.29578832   0.44775392
  8    6.000   0.71241833   0.20426354   0.44758919
  8    6.000   0.70376041   0.28743494   0.44825667
  8    6.000   0.74971297   0.25047077   0.40884302
  8    6.000   0.66682031   0.16643396   0.40878760
  8    6.000   0.71182900   0.29563885   0.37038332
  8    6.000   0.70447601   0.21225328   0.37044076
  8    6.000   0.79518311   0.28809665   0.37021147
  8    6.000   0.78785188   0.20484742   0.37039140
  8    6.000   0.66663670   0.16704046   0.48592898
  8    6.000   0.75048313   0.24951107   0.48609483
  8    6.000   0.79515958   0.37849291   0.14067339
  8    6.000   0.78817376   0.46182624   0.14067339
  8    6.000   0.71182624   0.37150709   0.14067339
  8    6.000   0.70484042   0.45484042   0.14067339
  8    6.000   0.75000000   0.41666667   0.10263373
  8    6.000   0.66666667   0.33333333   0.10263373
  8    6.000   0.66666667   0.33333333   0.17871304
  8    6.000   0.75000000   0.41666667   0.17871304
  8    6.000   0.79522934   0.37869721   0.29323645
  8    6.000   0.78784226   0.46202766   0.29336937
  8    6.000   0.71185950   0.37137609   0.29321375
  8    6.000   0.70439851   0.45466104   0.29352335
  8    6.000   0.75000000   0.41666667   0.25479235
  8    6.000   0.66666667   0.33333333   0.25479235
  8    6.000   0.71182624   0.46182624   0.21675270
  8    6.000   0.70484042   0.37849291   0.21675270
  8    6.000   0.79515958   0.45484042   0.21675270
  8    6.000   0.78817376   0.37150709   0.21675270
  8    6.000   0.66650058   0.33359580   0.33180571
  8    6.000   0.74985762   0.41632116   0.33182561
  8    6.000   0.79586279   0.37929198   0.44748271
  8    6.000   0.78699255   0.46271315   0.44824454
  8    6.000   0.71309717   0.37016116   0.44785077
  8    6.000   0.70331762   0.45323626   0.44939954
  8    6.000   0.74917955   0.41760222   0.40903435
  8    6.000   0.66594253   0.33326297   0.40901759
  8    6.000   0.71175585   0.46217879   0.36995338
  8    6.000   0.70424715   0.37893499   0.37068046
  8    6.000   0.79509144   0.45466245   0.37030756
  8    6.000   0.78765719   0.37144209   0.37074523
  8    6.000   0.66776918   0.33430771   0.48703362
  8    6.000   0.75113634   0.41584100   0.48670866
  8    6.000   0.79515958   0.54515958   0.14067339
  8    6.000   0.78817376   0.62849291   0.14067339
  8    6.000   0.71182624   0.53817376   0.14067339
  8    6.000   0.70484042   0.62150709   0.14067339
  8    6.000   0.75000000   0.58333333   0.10263373
  8    6.000   0.66666667   0.50000000   0.10263373
  8    6.000   0.66666667   0.50000000   0.17871304
  8    6.000   0.75000000   0.58333333   0.17871304
  8    6.000   0.79521722   0.54531500   0.29320028
  8    6.000   0.78787288   0.62863697   0.29331688
  8    6.000   0.71179027   0.53792312   0.29343839
  8    6.000   0.70449070   0.62121187   0.29341048
  8    6.000   0.75000000   0.58333333   0.25479235
  8    6.000   0.66666667   0.50000000   0.25479235
  8    6.000   0.71182624   0.62849291   0.21675270
  8    6.000   0.70484042   0.54515958   0.21675270
  8    6.000   0.79515958   0.62150709   0.21675270
  8    6.000   0.78817376   0.53817376   0.21675270
  8    6.000   0.66563741   0.50003037   0.33194977
  8    6.000   0.75006034   0.58308629   0.33182746
  8    6.000   0.79614108   0.54613715   0.44729618
  8    6.000   0.78715487   0.62917035   0.44782968
  8    6.000   0.71345786   0.53650787   0.44820351
  8    6.000   0.70347072   0.62011513   0.44957884
  8    6.000   0.74875981   0.58388135   0.40902483
  8    6.000   0.66773754   0.49969993   0.40904828
  8    6.000   0.71180837   0.62869599   0.37000531
  8    6.000   0.70419463   0.54548385   0.37031053
  8    6.000   0.79509985   0.62122012   0.37046735
  8    6.000   0.78764259   0.53799886   0.37080579
  8    6.000   0.66718433   0.50102977   0.48660133
  8    6.000   0.75157177   0.58225450   0.48664654
  8    6.000   0.79515958   0.71182624   0.14067339
  8    6.000   0.78817376   0.79515958   0.14067339
  8    6.000   0.71182624   0.70484042   0.14067339
  8    6.000   0.70484042   0.78817376   0.14067339
  8    6.000   0.75000000   0.75000000   0.10263373
  8    6.000   0.66666667   0.66666667   0.10263373
  8    6.000   0.66666667   0.66666667   0.17871304
  8    6.000   0.75000000   0.75000000   0.17871304
  8    6.000   0.79521038   0.71193059   0.29323572
  8    6.000   0.78791945   0.79524472   0.29327433
  8    6.000   0.71184598   0.70457946   0.29341876
  8    6.000   0.70456777   0.78792225   0.29334934
  8    6.000   0.75000000   0.75000000   0.25479235
  8    6.000   0.66666667   0.66666667   0.25479235
  8    6.000   0.71182624   0.79515958   0.21675270
  8    6.000   0.70484042   0.71182624   0.21675270
  8    6.000   0.79515958   0.78817376   0.21675270
  8    6.000   0.78817376   0.70484042   0.21675270
  8    6.000   0.66593530   0.66636413   0.33182045
  8    6.000   0.75004244   0.74985184   0.33179136
  8    6.000   0.79571069   0.71240149   0.44745162
  8    6.000   0.78765367   0.79567137   0.44739892
  8    6.000   0.71249207   0.70391776   0.44820415
  8    6.000   0.70435980   0.78761692   0.44787450
  8    6.000   0.74941187   0.74985306   0.40880389
  8    6.000   0.66739817   0.66642801   0.40895829
  8    6.000   0.71181455   0.79520833   0.37012613
  8    6.000   0.70432068   0.71198055   0.37019218
  8    6.000   0.79512463   0.78792704   0.37039608
  8    6.000   0.78775216   0.70454320   0.37047742
  8    6.000   0.66584588   0.66761682   0.48687157
  8    6.000   0.75070082   0.75022618   0.48610712
  8    6.000   0.79515958   0.87849291   0.14067339
  8    6.000   0.78817376   0.96182624   0.14067339
  8    6.000   0.71182624   0.87150709   0.14067339
  8    6.000   0.70484042   0.95484042   0.14067339
  8    6.000   0.75000000   0.91666667   0.10263373
  8    6.000   0.66666667   0.83333333   0.10263373
  8    6.000   0.66666667   0.83333333   0.17871304
  8    6.000   0.75000000   0.91666667   0.17871304
  8    6.000   0.79520188   0.87856915   0.29323493
  8    6.000   0.78800721   0.96194211   0.29323527
  8    6.000   0.71181710   0.87129282   0.29342902
  8    6.000   0.70467914   0.95471602   0.29326900
  8    6.000   0.75000000   0.91666667   0.25479235
  8    6.000   0.66666667   0.83333333   0.25479235
  8    6.000   0.71182624   0.96182624   0.21675270
  8    6.000   0.70484042   0.87849291   0.21675270
  8    6.000   0.79515958   0.95484042   0.21675270
  8    6.000   0.78817376   0.87150709   0.21675270
  8    6.000   0.66613662   0.83292510   0.33183790
  8    6.000   0.75007642   0.91670793   0.33168678
  8    6.000   0.79573964   0.87908218   0.44741960
  8    6.000   0.78765222   0.96242072   0.44735146
  8    6.000   0.71247457   0.87103189   0.44766533
  8    6.000   0.70429707   0.95434155   0.44749815
  8    6.000   0.74981416   0.91660387   0.40858671
  8    6.000   0.66731869   0.83363087   0.40871859
  8    6.000   0.71190560   0.96196956   0.37013542
  8    6.000   0.70457445   0.87857480   0.36999278
  8    6.000   0.79523986   0.95471404   0.37021565
  8    6.000   0.78795265   0.87131030   0.37021602
  8    6.000   0.66635339   0.83354153   0.48589822
  8    6.000   0.75025609   0.91696138   0.48588048
  8    6.000   0.96182624   0.04515958   0.14067339
  8    6.000   0.95484042   0.12849291   0.14067339
  8    6.000   0.87849291   0.03817376   0.14067339
  8    6.000   0.87150709   0.12150709   0.14067339
  8    6.000   0.91666667   0.08333333   0.10263373
  8    6.000   0.83333333   0.00000000   0.10263373
  8    6.000   0.83333333   0.00000000   0.17871304
  8    6.000   0.91666667   0.08333333   0.17871304
  8    6.000   0.96192732   0.04528089   0.29325332
  8    6.000   0.95471947   0.12863263   0.29325509
  8    6.000   0.87856312   0.03808643   0.29325961
  8    6.000   0.87134085   0.12144637   0.29330104
  8    6.000   0.91666667   0.08333333   0.25479235
  8    6.000   0.83333333   0.00000000   0.25479235
  8    6.000   0.87849291   0.12849291   0.21675270
  8    6.000   0.87150709   0.04515958   0.21675270
  8    6.000   0.96182624   0.12150709   0.21675270
  8    6.000   0.95484042   0.03817376   0.21675270
  8    6.000   0.83323372   0.00002032   0.33168721
  8    6.000   0.91668068   0.08335456   0.33168337
  8    6.000   0.96237344   0.04571564   0.44747598
  8    6.000   0.95430006   0.12905050   0.44749808
  8    6.000   0.87906401   0.03763317   0.44749450
  8    6.000   0.87096486   0.12097236   0.44751741
  8    6.000   0.91663104   0.08338319   0.40859703
  8    6.000   0.83345845   0.00001379   0.40858893
  8    6.000   0.87859277   0.12871281   0.37012624
  8    6.000   0.87133756   0.04535166   0.37013182
  8    6.000   0.96197027   0.12139608   0.37016124
  8    6.000   0.95467757   0.03803824   0.37017104
  8    6.000   0.83320743   0.00007628   0.48584360
  8    6.000   0.91669856   0.08332087   0.48588935
  8    6.000   0.96182624   0.21182624   0.14067339
  8    6.000   0.95484042   0.29515958   0.14067339
  8    6.000   0.87849291   0.20484042   0.14067339
  8    6.000   0.87150709   0.28817376   0.14067339
  8    6.000   0.91666667   0.25000000   0.10263373
  8    6.000   0.83333333   0.16666667   0.10263373
  8    6.000   0.83333333   0.16666667   0.17871304
  8    6.000   0.91666667   0.25000000   0.17871304
  8    6.000   0.96192172   0.21196962   0.29326832
  8    6.000   0.95469974   0.29531251   0.29327633
  8    6.000   0.87854635   0.20477456   0.29324963
  8    6.000   0.87128877   0.28811754   0.29335885
  8    6.000   0.91666667   0.25000000   0.25479235
  8    6.000   0.83333333   0.16666667   0.25479235
  8    6.000   0.87849291   0.29515958   0.21675270
  8    6.000   0.87150709   0.21182624   0.21675270
  8    6.000   0.96182624   0.28817376   0.21675270
  8    6.000   0.95484042   0.20484042   0.21675270
  8    6.000   0.83317556   0.16683116   0.33172719
  8    6.000   0.91663121   0.25001937   0.33170970
  8    6.000   0.96236908   0.21239548   0.44746203
  8    6.000   0.95426831   0.29575987   0.44753271
  8    6.000   0.87905267   0.20430319   0.44748853
  8    6.000   0.87089525   0.28760411   0.44766321
  8    6.000   0.91659151   0.25012701   0.40862999
  8    6.000   0.83340557   0.16661306   0.40862334
  8    6.000   0.87853458   0.29542279   0.37016202
  8    6.000   0.87126268   0.21207859   0.37019788
  8    6.000   0.96195872   0.28807858   0.37017604
  8    6.000   0.95465937   0.20475083   0.37019856
  8    6.000   0.83328268   0.16673496   0.48585758
  8    6.000   0.91681471   0.24988091   0.48592215
  8    6.000   0.96182624   0.37849291   0.14067339
  8    6.000   0.95484042   0.46182624   0.14067339
  8    6.000   0.87849291   0.37150709   0.14067339
  8    6.000   0.87150709   0.45484042   0.14067339
  8    6.000   0.91666667   0.41666667   0.10263373
  8    6.000   0.83333333   0.33333333   0.10263373
  8    6.000   0.83333333   0.33333333   0.17871304
  8    6.000   0.91666667   0.41666667   0.17871304
  8    6.000   0.96193012   0.37864106   0.29327524
  8    6.000   0.95466796   0.46195810   0.29329885
  8    6.000   0.87855849   0.37138620   0.29326935
  8    6.000   0.87125023   0.45473103   0.29338653
  8    6.000   0.91666667   0.41666667   0.25479235
  8    6.000   0.83333333   0.33333333   0.25479235
  8    6.000   0.87849291   0.46182624   0.21675270
  8    6.000   0.87150709   0.37849291   0.21675270
  8    6.000   0.96182624   0.45484042   0.21675270
  8    6.000   0.95484042   0.37150709   0.21675270
  8    6.000   0.83302329   0.33365780   0.33181773
  8    6.000   0.91658832   0.41659154   0.33175130
  8    6.000   0.96242548   0.37914340   0.44747002
  8    6.000   0.95413350   0.46251020   0.44756700
  8    6.000   0.87913539   0.37087578   0.44756524
  8    6.000   0.87069819   0.45418038   0.44788885
  8    6.000   0.91646584   0.41687369   0.40870908
  8    6.000   0.83332703   0.33310585   0.40878670
  8    6.000   0.87850989   0.46205833   0.37012680
  8    6.000   0.87113290   0.37875483   0.37034386
  8    6.000   0.96193187   0.45469298   0.37021592
  8    6.000   0.95460207   0.37140156   0.37027287
  8    6.000   0.83327802   0.33349868   0.48600565
  8    6.000   0.91687388   0.41651317   0.48598319
  8    6.000   0.96182624   0.54515958   0.14067339
  8    6.000   0.95484042   0.62849291   0.14067339
  8    6.000   0.87849291   0.53817376   0.14067339
  8    6.000   0.87150709   0.62150709   0.14067339
  8    6.000   0.91666667   0.58333333   0.10263373
  8    6.000   0.83333333   0.50000000   0.10263373
  8    6.000   0.83333333   0.50000000   0.17871304
  8    6.000   0.91666667   0.58333333   0.17871304
  8    6.000   0.96192867   0.54527959   0.29327830
  8    6.000   0.95466911   0.62859114   0.29329581
  8    6.000   0.87854422   0.53801259   0.29330326
  8    6.000   0.87127066   0.62135901   0.29333874
  8    6.000   0.91666667   0.58333333   0.25479235
  8    6.000   0.83333333   0.50000000   0.25479235
  8    6.000   0.87849291   0.62849291   0.21675270
  8    6.000   0.87150709   0.54515958   0.21675270
  8    6.000   0.96182624   0.62150709   0.21675270
  8    6.000   0.95484042   0.53817376   0.21675270
  8    6.000   0.83291166   0.50025345   0.33184411
  8    6.000   0.91656416   0.58321971   0.33175694
  8    6.000   0.96252650   0.54582351   0.44747791
  8    6.000   0.95419042   0.62909346   0.44751307
  8    6.000   0.87918553   0.53745102   0.44763667
  8    6.000   0.87081452   0.62087368   0.44778943
  8    6.000   0.91647910   0.58342487   0.40870686
  8    6.000   0.83328477   0.49948264   0.40886213
  8    6.000   0.87851764   0.62863202   0.37015701
  8    6.000   0.87110182   0.54531520   0.37038396
  8    6.000   0.96192353   0.62130794   0.37022777
  8    6.000   0.95459788   0.53800648   0.37027112
  8    6.000   0.83320508   0.50055540   0.48619317
  8    6.000   0.91693008   0.58328712   0.48597330
  8    6.000   0.96182624   0.71182624   0.14067339
  8    6.000   0.95484042   0.79515958   0.14067339
  8    6.000   0.87849291   0.70484042   0.14067339
  8    6.000   0.87150709   0.78817376   0.14067339
  8    6.000   0.91666667   0.75000000   0.10263373
  8    6.000   0.83333333   0.66666667   0.10263373
  8    6.000   0.83333333   0.66666667   0.17871304
  8    6.000   0.91666667   0.75000000   0.17871304
  8    6.000   0.96191974   0.71190824   0.29326845
  8    6.000   0.95468955   0.79524290   0.29327128
  8    6.000   0.87852558   0.70466493   0.29331911
  8    6.000   0.87131365   0.78801199   0.29327586
  8    6.000   0.91666667   0.75000000   0.25479235
  8    6.000   0.83333333   0.66666667   0.25479235
  8    6.000   0.87849291   0.79515958   0.21675270
  8    6.000   0.87150709   0.71182624   0.21675270
  8    6.000   0.96182624   0.78817376   0.21675270
  8    6.000   0.95484042   0.70484042   0.21675270
  8    6.000   0.83299904   0.66664528   0.33181123
  8    6.000   0.91660769   0.74991227   0.33171723
  8    6.000   0.96240451   0.71237607   0.44747272
  8    6.000   0.95428854   0.79568504   0.44747074
  8    6.000   0.87900860   0.70423347   0.44759021
  8    6.000   0.87099783   0.78763623   0.44758719
  8    6.000   0.91655447   0.74997616   0.40863707
  8    6.000   0.83335125   0.66643012   0.40880409
  8    6.000   0.87855200   0.79524275   0.37013687
  8    6.000   0.87117158   0.71191981   0.37026088
  8    6.000   0.96192502   0.78796767   0.37019714
  8    6.000   0.95462948   0.70462324   0.37020715
  8    6.000   0.83306248   0.66703232   0.48602186
  8    6.000   0.91681895   0.75001351   0.48591457
  8    6.000   0.96182624   0.87849291   0.14067339
  8    6.000   0.95484042   0.96182624   0.14067339
  8    6.000   0.87849291   0.87150709   0.14067339
  8    6.000   0.87150709   0.95484042   0.14067339
  8    6.000   0.91666667   0.91666667   0.10263373
  8    6.000   0.83333333   0.83333333   0.10263373
  8    6.000   0.83333333   0.83333333   0.17871304
  8    6.000   0.91666667   0.91666667   0.17871304
  8    6.000   0.96191803   0.87858057   0.29324918
  8    6.000   0.95471332   0.96193627   0.29324939
  8    6.000   0.87853661   0.87136769   0.29330087
  8    6.000   0.87135733   0.95473087   0.29326611
  8    6.000   0.91666667   0.91666667   0.25479235
  8    6.000   0.83333333   0.83333333   0.25479235
  8    6.000   0.87849291   0.96182624   0.21675270
  8    6.000   0.87150709   0.87849291   0.21675270
  8    6.000   0.96182624   0.95484042   0.21675270
  8    6.000   0.95484042   0.87150709   0.21675270
  8    6.000   0.83313774   0.83320997   0.33172099
  8    6.000   0.91668409   0.91665168   0.33168193
  8    6.000   0.96238210   0.87903449   0.44746552
  8    6.000   0.95429798   0.96236841   0.44747034
  8    6.000   0.87905990   0.87096156   0.44751927
  8    6.000   0.87097628   0.95430762   0.44753221
  8    6.000   0.91659600   0.91666995   0.40859650
  8    6.000   0.83347148   0.83334931   0.40862591
  8    6.000   0.87861198   0.96197013   0.37011980
  8    6.000   0.87129850   0.87860657   0.37012160
  8    6.000   0.96196679   0.95467662   0.37017143
  8    6.000   0.95466322   0.87132079   0.37017784
  8    6.000   0.83322786   0.83348009   0.48587584
  8    6.000   0.91674585   0.91668884   0.48589132
 78   10.000   0.50000000   0.50000000   0.71250010
 78   10.000   0.56733553   0.49999853   0.68516923
 78   10.000   0.56749290   0.50000112   0.73965581
 78   10.000   0.43266447   0.50000147   0.68516923
 78   10.000   0.43250710   0.49999888   0.73965581
 78   10.000   0.45820785   0.56762035   0.71257076
 78   10.000   0.54178651   0.56762178   0.71256636
 78   10.000   0.45821349   0.43237822   0.71256636
 78   10.000   0.54179215   0.43237965   0.71257076
 78   10.000   0.49999973   0.45831367   0.75635732
 78   10.000   0.50000027   0.54168633   0.75635732
 78   10.000   0.50000720   0.45793751   0.66880972
 78   10.000   0.49999280   0.54206249   0.66880972
 78   10.000   0.63480187   0.50000306   0.65801124
 78   10.000   0.63763978   0.50000200   0.71249580
 78   10.000   0.63500663   0.50000115   0.76688130
 78   10.000   0.36519813   0.49999694   0.65801124
 78   10.000   0.36236022   0.49999800   0.71249580
 78   10.000   0.36499337   0.49999885   0.76688130
 78   10.000   0.41640352   0.63526857   0.71267211
 78   10.000   0.49999652   0.63829250   0.71255233
 78   10.000   0.58358802   0.63526960   0.71266124
 78   10.000   0.41641198   0.36473040   0.71266124
 78   10.000   0.50000348   0.36170750   0.71255233
 78   10.000   0.58359648   0.36473143   0.71267211
 78   10.000   0.49999914   0.41655723   0.80011513
 78   10.000   0.50000000   0.50000000   0.80212459
 78   10.000   0.50000086   0.58344277   0.80011513
 78   10.000   0.50003060   0.41585116   0.62487650
 78   10.000   0.50000000   0.50000000   0.62370447
 78   10.000   0.49996940   0.58414884   0.62487650
 78   10.000   0.56908616   0.45731222   0.78504200
 78   10.000   0.56908672   0.54268913   0.78504157
 78   10.000   0.56899210   0.45721108   0.63973840
 78   10.000   0.56896790   0.54276858   0.63973995
 78   10.000   0.43091328   0.45731087   0.78504157
 78   10.000   0.43091384   0.54268778   0.78504200
 78   10.000   0.43103210   0.45723142   0.63973995
 78   10.000   0.43100790   0.54278892   0.63973840
 78   10.000   0.61160777   0.56898476   0.68490088
 78   10.000   0.61171224   0.56909168   0.74031477
 78   10.000   0.38838099   0.56898248   0.68490668
 78   10.000   0.38828313   0.56908926   0.74031906
 78   10.000   0.61161901   0.43101752   0.68490668
 78   10.000   0.61171687   0.43091074   0.74031906
 78   10.000   0.38839223   0.43101524   0.68490088
 78   10.000   0.38828776   0.43090832   0.74031477
 78   10.000   0.45734191   0.61173044   0.75726423
 78   10.000   0.54265890   0.61173025   0.75726053
 78   10.000   0.45734110   0.38826975   0.75726053
 78   10.000   0.54265809   0.38826956   0.75726423
 78   10.000   0.45722273   0.61183416   0.66782328
 78   10.000   0.54275651   0.61183319   0.66781319
 78   10.000   0.45724349   0.38816681   0.66781319
 78   10.000   0.54277727   0.38816584   0.66782328
 78   10.000   0.70246925   0.50001032   0.63100901
 78   10.000   0.70576725   0.50000539   0.68535021
 78   10.000   0.70582505   0.50000232   0.73986991
 78   10.000   0.70272025   0.50000127   0.79402006
 78   10.000   0.29753075   0.49998968   0.63100901
 78   10.000   0.29423275   0.49999461   0.68535021
 78   10.000   0.29417495   0.49999768   0.73986991
 78   10.000   0.29727975   0.49999873   0.79402006
 78   10.000   0.37443572   0.70303516   0.71282847
 78   10.000   0.45801731   0.70671295   0.71267527
 78   10.000   0.54197715   0.70671196   0.71266902
 78   10.000   0.62555551   0.70303389   0.71281395
 78   10.000   0.37444449   0.29696611   0.71281395
 78   10.000   0.45802285   0.29328804   0.71266902
 78   10.000   0.54198269   0.29328705   0.71267527
 78   10.000   0.62556428   0.29696484   0.71282847
 78   10.000   0.49999918   0.37465292   0.84378721
 78   10.000   0.49999974   0.45808206   0.84626680
 78   10.000   0.50000026   0.54191794   0.84626680
 78   10.000   0.50000082   0.62534708   0.84378721
 78   10.000   0.50010204   0.37151052   0.58109246
 78   10.000   0.50000268   0.45991392   0.57926688
 78   10.000   0.49999732   0.54008608   0.57926688
 78   10.000   0.49989796   0.62848948   0.58109246
 78   10.000   0.63719125   0.45710485   0.81249228
 78   10.000   0.56937574   0.41521617   0.82909970
 78   10.000   0.63719165   0.54289701   0.81249188
 78   10.000   0.57043314   0.50000052   0.83189807
 78   10.000   0.56937698   0.58478442   0.82909937
 78   10.000   0.63713359   0.45706303   0.61223167
 78   10.000   0.56872494   0.41479471   0.59570590
 78   10.000   0.63710035   0.54292118   0.61222811
 78   10.000   0.57134657   0.49997078   0.59267724
 78   10.000   0.56864005   0.58514468   0.59571556
 78   10.000   0.36280835   0.45710299   0.81249188
 78   10.000   0.43062302   0.41521558   0.82909937
 78   10.000   0.36280875   0.54289515   0.81249228
 78   10.000   0.42956686   0.49999948   0.83189807
 78   10.000   0.43062426   0.58478383   0.82909970
 78   10.000   0.36289965   0.45707882   0.61222811
 78   10.000   0.43135995   0.41485532   0.59571556
 78   10.000   0.36286641   0.54293697   0.61223167
 78   10.000   0.42865343   0.50002922   0.59267724
 78   10.000   0.43127506   0.58520529   0.59570590
 78   10.000   0.65407983   0.63709273   0.68506520
 78   10.000   0.67984367   0.56916314   0.65779001
 78   10.000   0.65410898   0.63724320   0.74047678
 78   10.000   0.68385036   0.57027655   0.71272721
 78   10.000   0.67988424   0.56933369   0.76765021
 78   10.000   0.34590658   0.63708948   0.68507740
 78   10.000   0.32014110   0.56914958   0.65779851
 78   10.000   0.34588383   0.63724147   0.74048506
 78   10.000   0.31614085   0.57027131   0.71273337
 78   10.000   0.32011176   0.56933140   0.76765397
 78   10.000   0.65409342   0.36291052   0.68507740
 78   10.000   0.67985890   0.43085042   0.65779851
 78   10.000   0.65411617   0.36275853   0.74048506
 78   10.000   0.68385915   0.42972869   0.71273337
 78   10.000   0.67988824   0.43066860   0.76765397
 78   10.000   0.34592017   0.36290727   0.68506520
 78   10.000   0.32015633   0.43083686   0.65779001
 78   10.000   0.34589102   0.36275680   0.74047678
 78   10.000   0.31614964   0.42972345   0.71272721
 78   10.000   0.32011576   0.43066631   0.76765021
 78   10.000   0.45720825   0.65403185   0.80121345
 78   10.000   0.41521696   0.68007684   0.75743377
 78   10.000   0.54279418   0.65403042   0.80121048
 78   10.000   0.50000110   0.68424903   0.75801054
 78   10.000   0.58478387   0.68007546   0.75742576
 78   10.000   0.45720582   0.34596958   0.80121048
 78   10.000   0.41521613   0.31992454   0.75742576
 78   10.000   0.54279175   0.34596815   0.80121345
 78   10.000   0.49999890   0.31575097   0.75801054
 78   10.000   0.58478304   0.31992316   0.75743377
 78   10.000   0.45680567   0.65452302   0.62382426
 78   10.000   0.41505372   0.68002541   0.66798942
 78   10.000   0.54313917   0.65450723   0.62380345
 78   10.000   0.49999364   0.68412761   0.66717686
 78   10.000   0.58492532   0.68001950   0.66797236
 78   10.000   0.45686083   0.34549277   0.62380345
 78   10.000   0.41507468   0.31998050   0.66797236
 78   10.000   0.54319433   0.34547698   0.62382426
 78   10.000   0.50000636   0.31587239   0.66717686
 78   10.000   0.58494628   0.31997459   0.66798942
 78   10.000   0.61380424   0.38612974   0.78628051
 78   10.000   0.61380445   0.61387075   0.78627713
 78   10.000   0.61380081   0.38638794   0.63898027
 78   10.000   0.61376344   0.61359827   0.63897125
 78   10.000   0.38619555   0.38612925   0.78627713
 78   10.000   0.38619576   0.61387026   0.78628051
 78   10.000   0.38623656   0.38640173   0.63897125
 78   10.000   0.38619919   0.61361206   0.63898027
 78   10.000   0.76891611   0.50001279   0.60547434
 78   10.000   0.77403882   0.50000653   0.65900623
 78   10.000   0.77468157   0.50000335   0.71283706
 78   10.000   0.77402134   0.50000238   0.76665015
 78   10.000   0.76869032   0.50000154   0.82020040
 78   10.000   0.23108389   0.49998721   0.60547434
 78   10.000   0.22596118   0.49999347   0.65900623
 78   10.000   0.22531843   0.49999665   0.71283706
 78   10.000   0.22597866   0.49999762   0.76665015
 78   10.000   0.23130968   0.49999846   0.82020040
 78   10.000   0.33360479   0.76888219   0.71290554
 78   10.000   0.41665055   0.77490893   0.71288374
 78   10.000   0.49999862   0.77579703   0.71285971
 78   10.000   0.58334371   0.77490729   0.71287664
 78   10.000   0.66638562   0.76887917   0.71288870
 78   10.000   0.33361438   0.23112083   0.71288870
 78   10.000   0.41665629   0.22509271   0.71287664
 78   10.000   0.50000138   0.22420297   0.71285971
 78   10.000   0.58334945   0.22509107   0.71288374
 78   10.000   0.66639521   0.23111781   0.71290554
 78   10.000   0.49999928   0.33371877   0.88612865
 78   10.000   0.50000003   0.41673467   0.89019200
 78   10.000   0.50000000   0.50000000   0.89082053
 78   10.000   0.49999997   0.58326533   0.89019200
 78   10.000   0.50000072   0.66628123   0.88612865
 78   10.000   0.50012711   0.33404065   0.53628934
 78   10.000   0.49986603   0.41595412   0.53809048
 78   10.000   0.50000000   0.50000000   0.53227152
 78   10.000   0.50013397   0.58404588   0.53809048
 78   10.000   0.49987289   0.66595935   0.53628934
 78   10.000   0.70463472   0.45672598   0.83996357
 78   10.000   0.63775448   0.41490595   0.85692674
 78   10.000   0.57002836   0.37353116   0.87289164
 78   10.000   0.70463422   0.54327406   0.83996387
 78   10.000   0.63977177   0.49999962   0.86142801
 78   10.000   0.57172746   0.45797106   0.87809399
 78   10.000   0.63775450   0.58509322   0.85692714
 78   10.000   0.57172748   0.54202836   0.87809422
 78   10.000   0.57002892   0.62646839   0.87289155
 78   10.000   0.70491431   0.45686809   0.58496388
 78   10.000   0.63813330   0.41475426   0.56759312
 78   10.000   0.57153298   0.37210775   0.55190870
 78   10.000   0.70487880   0.54312284   0.58495967
 78   10.000   0.64117295   0.49997433   0.56244449
 78   10.000   0.57312673   0.45706035   0.54681108
 78   10.000   0.63803684   0.58520163   0.56759122
 78   10.000   0.57318395   0.54283566   0.54677629
 78   10.000   0.57132894   0.62786373   0.55197834
 78   10.000   0.29536578   0.45672594   0.83996387
 78   10.000   0.36224550   0.41490678   0.85692714
 78   10.000   0.42997108   0.37353161   0.87289155
 78   10.000   0.29536528   0.54327402   0.83996357
 78   10.000   0.36022823   0.50000038   0.86142801
 78   10.000   0.42827252   0.45797164   0.87809422
 78   10.000   0.36224552   0.58509405   0.85692674
 78   10.000   0.42827254   0.54202894   0.87809399
 78   10.000   0.42997164   0.62646884   0.87289164
 78   10.000   0.29512120   0.45687716   0.58495967
 78   10.000   0.36196316   0.41479837   0.56759122
 78   10.000   0.42867106   0.37213627   0.55197834
 78   10.000   0.29508569   0.54313191   0.58496388
 78   10.000   0.35882705   0.50002567   0.56244449
 78   10.000   0.42681605   0.45716434   0.54677629
 78   10.000   0.36186670   0.58524574   0.56759312
 78   10.000   0.42687327   0.54293965   0.54681108
 78   10.000   0.42846702   0.62789225   0.55190870
 78   10.000   0.69672440   0.70452314   0.68503937
 78   10.000   0.72300264   0.63750153   0.65799134
 78   10.000   0.74794176   0.56980853   0.63117015
 78   10.000   0.69659379   0.70477041   0.74094636
 78   10.000   0.72961912   0.63965588   0.71302815
 78   10.000   0.75542444   0.57158926   0.68584260
 78   10.000   0.72273514   0.63787614   0.76804959
 78   10.000   0.75525958   0.57167338   0.74014443
 78   10.000   0.74768797   0.57010581   0.79473515
 78   10.000   0.30325943   0.70452086   0.68505852
 78   10.000   0.27697628   0.63749020   0.65800875
 78   10.000   0.25203630   0.56978441   0.63118386
 78   10.000   0.30339651   0.70476940   0.74095689
 78   10.000   0.27036656   0.63965122   0.71303897
 78   10.000   0.24456155   0.57158094   0.68585226
 78   10.000   0.27725712   0.63787388   0.76805578
 78   10.000   0.24473148   0.57166913   0.74015014
 78   10.000   0.25230765   0.57010353   0.79473809
 78   10.000   0.69674057   0.29547914   0.68505852
 78   10.000   0.72302372   0.36250980   0.65800875
 78   10.000   0.74796370   0.43021559   0.63118386
 78   10.000   0.69660349   0.29523060   0.74095689
 78   10.000   0.72963344   0.36034878   0.71303897
 78   10.000   0.75543845   0.42841906   0.68585226
 78   10.000   0.72274288   0.36212612   0.76805578
 78   10.000   0.75526852   0.42833087   0.74015014
 78   10.000   0.74769235   0.42989647   0.79473809
 78   10.000   0.30327560   0.29547686   0.68503937
 78   10.000   0.27699736   0.36249847   0.65799134
 78   10.000   0.25205824   0.43019147   0.63117015
 78   10.000   0.30340621   0.29522959   0.74094636
 78   10.000   0.27038088   0.36034412   0.71302815
 78   10.000   0.24457556   0.42841074   0.68584260
 78   10.000   0.27726486   0.36212386   0.76804959
 78   10.000   0.24474042   0.42832662   0.74014443
 78   10.000   0.25231203   0.42989419   0.79473515
 78   10.000   0.45675478   0.69647959   0.84470197
 78   10.000   0.41483166   0.72288906   0.80160564
 78   10.000   0.37337644   0.74802465   0.75801672
 78   10.000   0.54324614   0.69647834   0.84469945
 78   10.000   0.50000111   0.72975946   0.80277980
 78   10.000   0.45790999   0.75587649   0.75902146
 78   10.000   0.58516952   0.72288648   0.80159975
 78   10.000   0.54209141   0.75587503   0.75901830
 78   10.000   0.62662392   0.74802139   0.75800653
 78   10.000   0.45675386   0.30352166   0.84469945
 78   10.000   0.41483048   0.27711352   0.80159975
 78   10.000   0.37337608   0.25197861   0.75800653
 78   10.000   0.54324522   0.30352041   0.84470197
 78   10.000   0.49999889   0.27024054   0.80277980
 78   10.000   0.45790859   0.24412497   0.75901830
 78   10.000   0.58516834   0.27711094   0.80160564
 78   10.000   0.54209001   0.24412351   0.75902146
 78   10.000   0.62662356   0.25197535   0.75801672
 78   10.000   0.45617520   0.69715594   0.57987989
 78   10.000   0.41446810   0.72304609   0.62395532
 78   10.000   0.37322261   0.74789209   0.66773904
 78   10.000   0.54364823   0.69711458   0.57985019
 78   10.000   0.49997934   0.72935039   0.62235900
 78   10.000   0.45791253   0.75564431   0.66657924
 78   10.000   0.58547184   0.72302342   0.62393396
 78   10.000   0.54207374   0.75564173   0.66657169
 78   10.000   0.62675541   0.74788198   0.66772034
 78   10.000   0.45635177   0.30288542   0.57985019
 78   10.000   0.41452816   0.27697658   0.62393396
 78   10.000   0.37324459   0.25211802   0.66772034
 78   10.000   0.54382480   0.30284406   0.57987989
 78   10.000   0.50002066   0.27064961   0.62235900
 78   10.000   0.45792626   0.24435827   0.66657169
 78   10.000   0.58553190   0.27695391   0.62395532
 78   10.000   0.54208747   0.24435569   0.66657924
 78   10.000   0.62677739   0.25210791   0.66773904
 78   10.000   0.68390568   0.38394238   0.81505195
 78   10.000   0.68390403   0.61605785   0.81505002
 78   10.000   0.65803047   0.31588751   0.78780631
 78   10.000   0.65802878   0.68411214   0.78780132
 78   10.000   0.61594551   0.34197007   0.83161743
 78   10.000   0.61594525   0.65802899   0.83161504
 78   10.000   0.68406641   0.38462509   0.61055111
 78   10.000   0.68400602   0.61536467   0.61052937
 78   10.000   0.65823351   0.31637362   0.63797355
 78   10.000   0.65819137   0.68361326   0.63795427
 78   10.000   0.61632672   0.34210783   0.59373745
 78   10.000   0.61622541   0.65785836   0.59373045
 78   10.000   0.31609597   0.38394215   0.81505002
 78   10.000   0.31609432   0.61605762   0.81505195
 78   10.000   0.34197122   0.31588786   0.78780132
 78   10.000   0.34196953   0.68411249   0.78780631
 78   10.000   0.38405475   0.34197101   0.83161504
 78   10.000   0.38405449   0.65802993   0.83161743
 78   10.000   0.31599398   0.38463533   0.61052937
 78   10.000   0.31593359   0.61537491   0.61055111
 78   10.000   0.34180863   0.31638674   0.63795427
 78   10.000   0.34176649   0.68362638   0.63797355
 78   10.000   0.38377459   0.34214164   0.59373045
 78   10.000   0.38367328   0.65789217   0.59373745
 38   10.000   0.00000000   0.08333333   0.10263373
 38   10.000   0.08333333   0.00000000   0.10263373
 38   10.000   0.08333333   0.00000000   0.17871304
 38   10.000   0.00000000   0.08333333   0.17871304
 38   10.000   0.00000000   0.08333333   0.25479235
 38   10.000   0.08333333   0.00000000   0.25479235
 38   10.000   0.08331482   0.99999842   0.33174804
 38   10.000   0.99999566   0.08336280   0.33175199
 38   10.000   0.99999699   0.08337071   0.40824934
 38   10.000   0.08332591   0.00001596   0.40824101
 38   10.000   0.08334517   0.00004043   0.48269510
 38   10.000   0.99999323   0.08340310   0.48270648
 38   10.000   0.00000000   0.25000000   0.10263373
 38   10.000   0.08333333   0.16666667   0.10263373
 38   10.000   0.08333333   0.16666667   0.17871304
 38   10.000   0.00000000   0.25000000   0.17871304
 38   10.000   0.00000000   0.25000000   0.25479235
 38   10.000   0.08333333   0.16666667   0.25479235
 38   10.000   0.08332453   0.16670995   0.33176577
 38   10.000   0.99999315   0.25005368   0.33176548
 38   10.000   0.99998837   0.25007679   0.40825865
 38   10.000   0.08334317   0.16674301   0.40825804
 38   10.000   0.08340817   0.16683964   0.48270168
 38   10.000   0.99997584   0.25013293   0.48272334
 38   10.000   0.00000000   0.41666667   0.10263373
 38   10.000   0.08333333   0.33333333   0.10263373
 38   10.000   0.08333333   0.33333333   0.17871304
 38   10.000   0.00000000   0.41666667   0.17871304
 38   10.000   0.00000000   0.41666667   0.25479235
 38   10.000   0.08333333   0.33333333   0.25479235
 38   10.000   0.08337771   0.33339346   0.33177723
 38   10.000   0.00000060   0.41670954   0.33178893
 38   10.000   0.99999737   0.41670741   0.40825589
 38   10.000   0.08339358   0.33342224   0.40827318
 38   10.000   0.08346956   0.33354565   0.48275704
 38   10.000   0.99999893   0.41668325   0.48280000
 38   10.000   0.00000000   0.58333333   0.10263373
 38   10.000   0.08333333   0.50000000   0.10263373
 38   10.000   0.08333333   0.50000000   0.17871304
 38   10.000   0.00000000   0.58333333   0.17871304
 38   10.000   0.00000000   0.58333333   0.25479235
 38   10.000   0.08333333   0.50000000   0.25479235
 38   10.000   0.08338528   0.49999951   0.33179383
 38   10.000   0.99999940   0.58329046   0.33178893
 38   10.000   0.00000263   0.58329259   0.40825589
 38   10.000   0.08351075   0.50002191   0.40832326
 38   10.000   0.08356451   0.50012649   0.48283951
 38   10.000   0.00000107   0.58331675   0.48280000
 38   10.000   0.00000000   0.75000000   0.10263373
 38   10.000   0.08333333   0.66666667   0.10263373
 38   10.000   0.08333333   0.66666667   0.17871304
 38   10.000   0.00000000   0.75000000   0.17871304
 38   10.000   0.00000000   0.75000000   0.25479235
 38   10.000   0.08333333   0.66666667   0.25479235
 38   10.000   0.08337866   0.66660687   0.33177443
 38   10.000   0.00000685   0.74994632   0.33176548
 38   10.000   0.00001163   0.74992321   0.40825865
 38   10.000   0.08337975   0.66660727   0.40828269
 38   10.000   0.08337136   0.66662784   0.48277710
 38   10.000   0.00002416   0.74986707   0.48272334
 38   10.000   0.00000000   0.91666667   0.10263373
 38   10.000   0.08333333   0.83333333   0.10263373
 38   10.000   0.08333333   0.83333333   0.17871304
 38   10.000   0.00000000   0.91666667   0.17871304
 38   10.000   0.00000000   0.91666667   0.25479235
 38   10.000   0.08333333   0.83333333   0.25479235
 38   10.000   0.08331796   0.83327614   0.33174645
 38   10.000   0.00000434   0.91663720   0.33175199
 38   10.000   0.00000301   0.91662929   0.40824934
 38   10.000   0.08332408   0.83327518   0.40825422
 38   10.000   0.08335858   0.83324349   0.48271076
 38   10.000   0.00000677   0.91659690   0.48270648
 38   10.000   0.16666667   0.08333333   0.10263373
 38   10.000   0.25000000   0.00000000   0.10263373
 38   10.000   0.25000000   0.00000000   0.17871304
 38   10.000   0.16666667   0.08333333   0.17871304
 38   10.000   0.16666667   0.08333333   0.25479235
 38   10.000   0.25000000   0.00000000   0.25479235
 38   10.000   0.24996636   0.99998206   0.33175696
 38   10.000   0.16665004   0.08333848   0.33175364
 38   10.000   0.16666165   0.08335597   0.40823978
 38   10.000   0.24998545   0.00002125   0.40820862
 38   10.000   0.24996824   0.00012128   0.48269367
 38   10.000   0.16676185   0.08345628   0.48271018
 38   10.000   0.16666667   0.25000000   0.10263373
 38   10.000   0.25000000   0.16666667   0.10263373
 38   10.000   0.25000000   0.16666667   0.17871304
 38   10.000   0.16666667   0.25000000   0.17871304
 38   10.000   0.16666667   0.25000000   0.25479235
 38   10.000   0.25000000   0.16666667   0.25479235
 38   10.000   0.25003921   0.16670242   0.33180462
 38   10.000   0.16670374   0.25000901   0.33179580
 38   10.000   0.16673612   0.25007917   0.40833945
 38   10.000   0.24999851   0.16673440   0.40826708
 38   10.000   0.24996440   0.16689212   0.48268860
 38   10.000   0.16676866   0.25017620   0.48276612
 38   10.000   0.16666667   0.41666667   0.10263373
 38   10.000   0.25000000   0.33333333   0.10263373
 38   10.000   0.25000000   0.33333333   0.17871304
 38   10.000   0.16666667   0.41666667   0.17871304
 38   10.000   0.16666667   0.41666667   0.25479235
 38   10.000   0.25000000   0.33333333   0.25479235
 38   10.000   0.25011255   0.33338606   0.33191916
 38   10.000   0.16680162   0.41666236   0.33186106
 38   10.000   0.16690968   0.41672463   0.40847879
 38   10.000   0.25014638   0.33336939   0.40863384
 38   10.000   0.24925110   0.33311772   0.48315087
 38   10.000   0.16677437   0.41703938   0.48296876
 38   10.000   0.16666667   0.58333333   0.10263373
 38   10.000   0.25000000   0.50000000   0.10263373
 38   10.000   0.25000000   0.50000000   0.17871304
 38   10.000   0.16666667   0.58333333   0.17871304
 38   10.000   0.16666667   0.58333333   0.25479235
 38   10.000   0.25000000   0.50000000   0.25479235
 38   10.000   0.25009638   0.49995175   0.33201672
 38   10.000   0.16683784   0.58324879   0.33187027
 38   10.000   0.16695381   0.58330750   0.40848877
 38   10.000   0.25000486   0.50000065   0.40884225
 38   10.000   0.24988797   0.50026736   0.48438914
 38   10.000   0.16680277   0.58367111   0.48294859
 38   10.000   0.16666667   0.75000000   0.10263373
 38   10.000   0.25000000   0.66666667   0.10263373
 38   10.000   0.25000000   0.66666667   0.17871304
 38   10.000   0.16666667   0.75000000   0.17871304
 38   10.000   0.16666667   0.75000000   0.25479235
 38   10.000   0.25000000   0.66666667   0.25479235
 38   10.000   0.25011008   0.66649548   0.33197316
 38   10.000   0.16671373   0.74989344   0.33179071
 38   10.000   0.16672012   0.74991334   0.40828954
 38   10.000   0.25028833   0.66656888   0.40876581
 38   10.000   0.24948896   0.66706033   0.48332292
 38   10.000   0.16687807   0.75009809   0.48274123
 38   10.000   0.16666667   0.91666667   0.10263373
 38   10.000   0.25000000   0.83333333   0.10263373
 38   10.000   0.25000000   0.83333333   0.17871304
 38   10.000   0.16666667   0.91666667   0.17871304
 38   10.000   0.16666667   0.91666667   0.25479235
 38   10.000   0.25000000   0.83333333   0.25479235
 38   10.000   0.24997578   0.83326221   0.33176718
 38   10.000   0.16664958   0.91664425   0.33176166
 38   10.000   0.16665414   0.91662931   0.40821916
 38   10.000   0.25000907   0.83328529   0.40828091
 38   10.000   0.24991491   0.83341639   0.48272908
 38   10.000   0.16673563   0.91668120   0.48269370
 38   10.000   0.33333333   0.08333333   0.10263373
 38   10.000   0.41666667   0.00000000   0.10263373
 38   10.000   0.41666667   0.00000000   0.17871304
 38   10.000   0.33333333   0.08333333   0.17871304
 38   10.000   0.33333333   0.08333333   0.25479235
 38   10.000   0.41666667   0.00000000   0.25479235
 38   10.000   0.41669672   0.99997248   0.33178275
 38   10.000   0.33335480   0.08333963   0.33173652
 38   10.000   0.33328191   0.08332488   0.40820712
 38   10.000   0.41668435   0.99994246   0.40822044
 38   10.000   0.41651092   0.00002547   0.48280414
 38   10.000   0.33322841   0.08336509   0.48270513
 38   10.000   0.33333333   0.25000000   0.10263373
 38   10.000   0.41666667   0.16666667   0.10263373
 38   10.000   0.41666667   0.16666667   0.17871304
 38   10.000   0.33333333   0.25000000   0.17871304
 38   10.000   0.33333333   0.25000000   0.25479235
 38   10.000   0.41666667   0.16666667   0.25479235
 38   10.000   0.41676480   0.16682531   0.33195491
 38   10.000   0.33355135   0.25009164   0.33203658
 38   10.000   0.33348399   0.25024109   0.40886605
 38   10.000   0.41674212   0.16687503   0.40852952
 38   10.000   0.41558199   0.16628525   0.48290676
 38   10.000   0.33330372   0.24948206   0.48339023
 38   10.000   0.33333333   0.41666667   0.10263373
 38   10.000   0.41666667   0.33333333   0.10263373
 38   10.000   0.41666667   0.33333333   0.17871304
 38   10.000   0.33333333   0.41666667   0.17871304
 38   10.000   0.33333333   0.41666667   0.25479235
 38   10.000   0.41666667   0.33333333   0.25479235
 38   10.000   0.41579163   0.33340323   0.33185243
 38   10.000   0.33334362   0.41656087   0.33221452
 38   10.000   0.33303742   0.41660250   0.40926858
 38   10.000   0.41535919   0.33325725   0.40884947
 38   10.000   0.41705686   0.33552557   0.48716628
 38   10.000   0.33373280   0.41836158   0.48739047
 38   10.000   0.33333333   0.58333333   0.10263373
 38   10.000   0.41666667   0.50000000   0.10263373
 38   10.000   0.41666667   0.50000000   0.17871304
 38   10.000   0.33333333   0.58333333   0.17871304
 38   10.000   0.33333333   0.58333333   0.25479235
 38   10.000   0.41666667   0.50000000   0.25479235
 38   10.000   0.41579876   0.49998178   0.33210867
 38   10.000   0.33338649   0.58318832   0.33236366
 38   10.000   0.33323604   0.58332808   0.40951686
 38   10.000   0.41574180   0.49983780   0.40928604
 38   10.000   0.41636654   0.50007700   0.48781224
 38   10.000   0.33431077   0.58324048   0.48759208
 38   10.000   0.33333333   0.75000000   0.10263373
 38   10.000   0.41666667   0.66666667   0.10263373
 38   10.000   0.41666667   0.66666667   0.17871304
 38   10.000   0.33333333   0.75000000   0.17871304
 38   10.000   0.33333333   0.75000000   0.25479235
 38   10.000   0.41666667   0.66666667   0.25479235
 38   10.000   0.41570459   0.66657749   0.33183685
 38   10.000   0.33338900   0.74972664   0.33201327
 38   10.000   0.33339036   0.74982035   0.40862955
 38   10.000   0.41514725   0.66646441   0.40902065
 38   10.000   0.41802143   0.66814806   0.48771768
 38   10.000   0.33306768   0.75164349   0.48324988
 38   10.000   0.33333333   0.91666667   0.10263373
 38   10.000   0.41666667   0.83333333   0.10263373
 38   10.000   0.41666667   0.83333333   0.17871304
 38   10.000   0.33333333   0.91666667   0.17871304
 38   10.000   0.33333333   0.91666667   0.25479235
 38   10.000   0.41666667   0.83333333   0.25479235
 38   10.000   0.41662985   0.83310872   0.33195618
 38   10.000   0.33336807   0.91661113   0.33179086
 38   10.000   0.33333472   0.91664310   0.40821780
 38   10.000   0.41679342   0.83305530   0.40866708
 38   10.000   0.41653964   0.83371674   0.48311778
 38   10.000   0.33339951   0.91676240   0.48273543
 38   10.000   0.50000000   0.08333333   0.10263373
 38   10.000   0.58333333   0.00000000   0.10263373
 38   10.000   0.58333333   0.00000000   0.17871304
 38   10.000   0.50000000   0.08333333   0.17871304
 38   10.000   0.50000000   0.08333333   0.25479235
 38   10.000   0.58333333   0.00000000   0.25479235
 38   10.000   0.58330328   0.00002752   0.33178275
 38   10.000   0.49999530   0.08332840   0.33179922
 38   10.000   0.49999403   0.08347587   0.40839391
 38   10.000   0.58331565   0.00005754   0.40822044
 38   10.000   0.58348908   0.99997453   0.48280414
 38   10.000   0.49983394   0.08347049   0.48285456
 38   10.000   0.50000000   0.25000000   0.10263373
 38   10.000   0.58333333   0.16666667   0.10263373
 38   10.000   0.58333333   0.16666667   0.17871304
 38   10.000   0.50000000   0.25000000   0.17871304
 38   10.000   0.50000000   0.25000000   0.25479235
 38   10.000   0.58333333   0.16666667   0.25479235
 38   10.000   0.58337015   0.16689128   0.33195618
 38   10.000   0.49991788   0.24922353   0.33168908
 38   10.000   0.50026872   0.24863295   0.40859737
 38   10.000   0.58320658   0.16694470   0.40866708
 38   10.000   0.58346036   0.16628326   0.48311778
 38   10.000   0.49916760   0.24849838   0.48515976
 38   10.000   0.50000000   0.41666667   0.10263373
 38   10.000   0.58333333   0.33333333   0.10263373
 38   10.000   0.58333333   0.33333333   0.17871304
 38   10.000   0.50000000   0.41666667   0.17871304
 38   10.000   0.50000000   0.41666667   0.25479235
 38   10.000   0.58333333   0.33333333   0.25479235
 38   10.000   0.58429541   0.33342251   0.33183685
 38   10.000   0.49998741   0.41674081   0.33136572
 38   10.000   0.50015158   0.41715196   0.40787609
 38   10.000   0.58485275   0.33353559   0.40902065
 38   10.000   0.58197857   0.33185194   0.48771768
 38   10.000   0.50027612   0.41950749   0.48269201
 38   10.000   0.50000000   0.58333333   0.10263373
 38   10.000   0.58333333   0.50000000   0.10263373
 38   10.000   0.58333333   0.50000000   0.17871304
 38   10.000   0.50000000   0.58333333   0.17871304
 38   10.000   0.50000000   0.58333333   0.25479235
 38   10.000   0.58333333   0.50000000   0.25479235
 38   10.000   0.58420124   0.50001822   0.33210867
 38   10.000   0.50001259   0.58325919   0.33136572
 38   10.000   0.49984842   0.58284804   0.40787609
 38   10.000   0.58425820   0.50016220   0.40928604
 38   10.000   0.58363346   0.49992300   0.48781224
 38   10.000   0.49972388   0.58049251   0.48269201
 38   10.000   0.50000000   0.75000000   0.10263373
 38   10.000   0.58333333   0.66666667   0.10263373
 38   10.000   0.58333333   0.66666667   0.17871304
 38   10.000   0.50000000   0.75000000   0.17871304
 38   10.000   0.50000000   0.75000000   0.25479235
 38   10.000   0.58333333   0.66666667   0.25479235
 38   10.000   0.58420837   0.66659677   0.33185243
 38   10.000   0.50008212   0.75077647   0.33168908
 38   10.000   0.49973128   0.75136705   0.40859737
 38   10.000   0.58464081   0.66674275   0.40884947
 38   10.000   0.58294314   0.66447443   0.48716628
 38   10.000   0.50083240   0.75150162   0.48515976
 38   10.000   0.50000000   0.91666667   0.10263373
 38   10.000   0.58333333   0.83333333   0.10263373
 38   10.000   0.58333333   0.83333333   0.17871304
 38   10.000   0.50000000   0.91666667   0.17871304
 38   10.000   0.50000000   0.91666667   0.25479235
 38   10.000   0.58333333   0.83333333   0.25479235
 38   10.000   0.58323520   0.83317469   0.33195491
 38   10.000   0.50000470   0.91667160   0.33179922
 38   10.000   0.50000597   0.91652413   0.40839391
 38   10.000   0.58325788   0.83312497   0.40852952
 38   10.000   0.58441801   0.83371475   0.48290676
 38   10.000   0.50016606   0.91652951   0.48285456
 38   10.000   0.66666667   0.08333333   0.10263373
 38   10.000   0.75000000   0.00000000   0.10263373
 38   10.000   0.75000000   0.00000000   0.17871304
 38   10.000   0.66666667   0.08333333   0.17871304
 38   10.000   0.66666667   0.08333333   0.25479235
 38   10.000   0.75000000   0.00000000   0.25479235
 38   10.000   0.75003364   0.00001794   0.33175696
 38   10.000   0.66663193   0.08338887   0.33179086
 38   10.000   0.66666528   0.08335690   0.40821780
 38   10.000   0.75001455   0.99997875   0.40820862
 38   10.000   0.75003176   0.99987872   0.48269367
 38   10.000   0.66660049   0.08323760   0.48273543
 38   10.000   0.66666667   0.25000000   0.10263373
 38   10.000   0.75000000   0.16666667   0.10263373
 38   10.000   0.75000000   0.16666667   0.17871304
 38   10.000   0.66666667   0.25000000   0.17871304
 38   10.000   0.66666667   0.25000000   0.25479235
 38   10.000   0.75000000   0.16666667   0.25479235
 38   10.000   0.75002422   0.16673779   0.33176718
 38   10.000   0.66661100   0.25027336   0.33201327
 38   10.000   0.66660964   0.25017965   0.40862955
 38   10.000   0.74999093   0.16671471   0.40828091
 38   10.000   0.75008509   0.16658361   0.48272908
 38   10.000   0.66693232   0.24835651   0.48324988
 38   10.000   0.66666667   0.41666667   0.10263373
 38   10.000   0.75000000   0.33333333   0.10263373
 38   10.000   0.75000000   0.33333333   0.17871304
 38   10.000   0.66666667   0.41666667   0.17871304
 38   10.000   0.66666667   0.41666667   0.25479235
 38   10.000   0.75000000   0.33333333   0.25479235
 38   10.000   0.74988992   0.33350452   0.33197316
 38   10.000   0.66661351   0.41681168   0.33236366
 38   10.000   0.66676396   0.41667192   0.40951686
 38   10.000   0.74971167   0.33343112   0.40876581
 38   10.000   0.75051104   0.33293967   0.48332292
 38   10.000   0.66568923   0.41675952   0.48759208
 38   10.000   0.66666667   0.58333333   0.10263373
 38   10.000   0.75000000   0.50000000   0.10263373
 38   10.000   0.75000000   0.50000000   0.17871304
 38   10.000   0.66666667   0.58333333   0.17871304
 38   10.000   0.66666667   0.58333333   0.25479235
 38   10.000   0.75000000   0.50000000   0.25479235
 38   10.000   0.74990362   0.50004825   0.33201672
 38   10.000   0.66665638   0.58343913   0.33221452
 38   10.000   0.66696258   0.58339750   0.40926858
 38   10.000   0.74999514   0.49999935   0.40884225
 38   10.000   0.75011203   0.49973264   0.48438914
 38   10.000   0.66626720   0.58163842   0.48739047
 38   10.000   0.66666667   0.75000000   0.10263373
 38   10.000   0.75000000   0.66666667   0.10263373
 38   10.000   0.75000000   0.66666667   0.17871304
 38   10.000   0.66666667   0.75000000   0.17871304
 38   10.000   0.66666667   0.75000000   0.25479235
 38   10.000   0.75000000   0.66666667   0.25479235
 38   10.000   0.74988745   0.66661394   0.33191916
 38   10.000   0.66644865   0.74990836   0.33203658
 38   10.000   0.66651601   0.74975891   0.40886605
 38   10.000   0.74985362   0.66663061   0.40863384
 38   10.000   0.75074890   0.66688228   0.48315087
 38   10.000   0.66669628   0.75051794   0.48339023
 38   10.000   0.66666667   0.91666667   0.10263373
 38   10.000   0.75000000   0.83333333   0.10263373
 38   10.000   0.75000000   0.83333333   0.17871304
 38   10.000   0.66666667   0.91666667   0.17871304
 38   10.000   0.66666667   0.91666667   0.25479235
 38   10.000   0.75000000   0.83333333   0.25479235
 38   10.000   0.74996079   0.83329758   0.33180462
 38   10.000   0.66664520   0.91666037   0.33173652
 38   10.000   0.66671809   0.91667512   0.40820712
 38   10.000   0.75000149   0.83326560   0.40826708
 38   10.000   0.75003560   0.83310788   0.48268860
 38   10.000   0.66677159   0.91663491   0.48270513
 38   10.000   0.83333333   0.08333333   0.10263373
 38   10.000   0.91666667   0.00000000   0.10263373
 38   10.000   0.91666667   0.00000000   0.17871304
 38   10.000   0.83333333   0.08333333   0.17871304
 38   10.000   0.83333333   0.08333333   0.25479235
 38   10.000   0.91666667   0.00000000   0.25479235
 38   10.000   0.91668518   0.00000158   0.33174804
 38   10.000   0.83335042   0.08335575   0.33176166
 38   10.000   0.83334586   0.08337069   0.40821916
 38   10.000   0.91667409   0.99998404   0.40824101
 38   10.000   0.91665483   0.99995957   0.48269510
 38   10.000   0.83326437   0.08331880   0.48269370
 38   10.000   0.83333333   0.25000000   0.10263373
 38   10.000   0.91666667   0.16666667   0.10263373
 38   10.000   0.91666667   0.16666667   0.17871304
 38   10.000   0.83333333   0.25000000   0.17871304
 38   10.000   0.83333333   0.25000000   0.25479235
 38   10.000   0.91666667   0.16666667   0.25479235
 38   10.000   0.91668204   0.16672386   0.33174645
 38   10.000   0.83328627   0.25010656   0.33179071
 38   10.000   0.83327988   0.25008666   0.40828954
 38   10.000   0.91667592   0.16672482   0.40825422
 38   10.000   0.91664142   0.16675651   0.48271076
 38   10.000   0.83312193   0.24990191   0.48274123
 38   10.000   0.83333333   0.41666667   0.10263373
 38   10.000   0.91666667   0.33333333   0.10263373
 38   10.000   0.91666667   0.33333333   0.17871304
 38   10.000   0.83333333   0.41666667   0.17871304
 38   10.000   0.83333333   0.41666667   0.25479235
 38   10.000   0.91666667   0.33333333   0.25479235
 38   10.000   0.91662134   0.33339313   0.33177443
 38   10.000   0.83316216   0.41675121   0.33187027
 38   10.000   0.83304619   0.41669250   0.40848877
 38   10.000   0.91662025   0.33339273   0.40828269
 38   10.000   0.91662864   0.33337216   0.48277710
 38   10.000   0.83319723   0.41632889   0.48294859
 38   10.000   0.83333333   0.58333333   0.10263373
 38   10.000   0.91666667   0.50000000   0.10263373
 38   10.000   0.91666667   0.50000000   0.17871304
 38   10.000   0.83333333   0.58333333   0.17871304
 38   10.000   0.83333333   0.58333333   0.25479235
 38   10.000   0.91666667   0.50000000   0.25479235
 38   10.000   0.91661472   0.50000049   0.33179383
 38   10.000   0.83319838   0.58333764   0.33186106
 38   10.000   0.83309032   0.58327537   0.40847879
 38   10.000   0.91648925   0.49997809   0.40832326
 38   10.000   0.91643549   0.49987351   0.48283951
 38   10.000   0.83322563   0.58296062   0.48296876
 38   10.000   0.83333333   0.75000000   0.10263373
 38   10.000   0.91666667   0.66666667   0.10263373
 38   10.000   0.91666667   0.66666667   0.17871304
 38   10.000   0.83333333   0.75000000   0.17871304
 38   10.000   0.83333333   0.75000000   0.25479235
 38   10.000   0.91666667   0.66666667   0.25479235
 38   10.000   0.91662229   0.66660654   0.33177723
 38   10.000   0.83329626   0.74999099   0.33179580
 38   10.000   0.83326388   0.74992083   0.40833945
 38   10.000   0.91660642   0.66657776   0.40827318
 38   10.000   0.91653044   0.66645435   0.48275704
 38   10.000   0.83323134   0.74982380   0.48276612
 38   10.000   0.83333333   0.91666667   0.10263373
 38   10.000   0.91666667   0.83333333   0.10263373
 38   10.000   0.91666667   0.83333333   0.17871304
 38   10.000   0.83333333   0.91666667   0.17871304
 38   10.000   0.83333333   0.91666667   0.25479235
 38   10.000   0.91666667   0.83333333   0.25479235
 38   10.000   0.91667547   0.83329005   0.33176577
 38   10.000   0.83334996   0.91666152   0.33175364
 38   10.000   0.83333835   0.91664403   0.40823978
 38   10.000   0.91665683   0.83325699   0.40825804
 38   10.000   0.91659183   0.83316036   0.48270168
 38   10.000   0.83323815   0.91654372   0.48271018
 22   12.000   0.08333333   0.08333333   0.14067339
 22   12.000   0.00000000   0.00000000   0.14067339
 22   12.000   0.08327822   0.08334975   0.29351740
 22   12.000   0.00000000   0.00000000   0.29350283
 22   12.000   0.00000000   0.00000000   0.21675270
 22   12.000   0.08333333   0.08333333   0.21675270
 22   12.000   0.08336188   0.08344571   0.44862025
 22   12.000   0.00000000   0.00000000   0.44858967
 22   12.000   0.00000000   0.00000000   0.37068588
 22   12.000   0.08328994   0.08335452   0.37068954
 22   12.000   0.08333333   0.25000000   0.14067339
 22   12.000   0.00000000   0.16666667   0.14067339
 22   12.000   0.08332344   0.25003494   0.29352785
 22   12.000   0.99998838   0.16671418   0.29350814
 22   12.000   0.00000000   0.16666667   0.21675270
 22   12.000   0.08333333   0.25000000   0.21675270
 22   12.000   0.08339081   0.25021894   0.44864321
 22   12.000   0.00001143   0.16680725   0.44859678
 22   12.000   0.99998386   0.16670658   0.37069618
 22   12.000   0.08334252   0.25005144   0.37071911
 22   12.000   0.08333333   0.41666667   0.14067339
 22   12.000   0.00000000   0.33333333   0.14067339
 22   12.000   0.08337689   0.41669496   0.29354276
 22   12.000   0.99999436   0.33338910   0.29351610
 22   12.000   0.00000000   0.33333333   0.21675270
 22   12.000   0.08333333   0.41666667   0.21675270
 22   12.000   0.08345756   0.41695570   0.44868668
 22   12.000   0.00005903   0.33352823   0.44860089
 22   12.000   0.00000278   0.33338749   0.37070634
 22   12.000   0.08342930   0.41669067   0.37075938
 22   12.000   0.08333333   0.58333333   0.14067339
 22   12.000   0.00000000   0.50000000   0.14067339
 22   12.000   0.08338509   0.58330718   0.29354521
 22   12.000   0.00000000   0.50000000   0.29353707
 22   12.000   0.00000000   0.50000000   0.21675270
 22   12.000   0.08333333   0.58333333   0.21675270
 22   12.000   0.08348943   0.58323018   0.44868451
 22   12.000   0.00000000   0.50000000   0.44866111
 22   12.000   0.00000000   0.50000000   0.37076189
 22   12.000   0.08342928   0.58330642   0.37074733
 22   12.000   0.08333333   0.75000000   0.14067339
 22   12.000   0.00000000   0.66666667   0.14067339
 22   12.000   0.08335196   0.74994661   0.29352797
 22   12.000   0.00000564   0.66661090   0.29351610
 22   12.000   0.00000000   0.66666667   0.21675270
 22   12.000   0.08333333   0.75000000   0.21675270
 22   12.000   0.08343188   0.74983162   0.44864622
 22   12.000   0.99994097   0.66647177   0.44860089
 22   12.000   0.99999722   0.66661251   0.37070634
 22   12.000   0.08335456   0.74992235   0.37070955
 22   12.000   0.08333333   0.91666667   0.14067339
 22   12.000   0.00000000   0.83333333   0.14067339
 22   12.000   0.08329879   0.91665062   0.29351506
 22   12.000   0.00001162   0.83328582   0.29350814
 22   12.000   0.00000000   0.83333333   0.21675270
 22   12.000   0.08333333   0.91666667   0.21675270
 22   12.000   0.08337322   0.91661733   0.44861266
 22   12.000   0.99998857   0.83319275   0.44859678
 22   12.000   0.00001614   0.83329342   0.37069618
 22   12.000   0.08330271   0.91666871   0.37068377
 22   12.000   0.25000000   0.08333333   0.14067339
 22   12.000   0.16666667   0.00000000   0.14067339
 22   12.000   0.24993166   0.08330175   0.29352414
 22   12.000   0.16659588   0.00002075   0.29350279
 22   12.000   0.16666667   0.00000000   0.21675270
 22   12.000   0.25000000   0.08333333   0.21675270
 22   12.000   0.25007856   0.08345311   0.44857831
 22   12.000   0.16670970   0.00004066   0.44855607
 22   12.000   0.16661079   0.00000430   0.37067790
 22   12.000   0.24997763   0.08337029   0.37066534
 22   12.000   0.25000000   0.25000000   0.14067339
 22   12.000   0.16666667   0.16666667   0.14067339
 22   12.000   0.24998422   0.24995368   0.29356937
 22   12.000   0.16663871   0.16667645   0.29351182
 22   12.000   0.16666667   0.16666667   0.21675270
 22   12.000   0.25000000   0.25000000   0.21675270
 22   12.000   0.25024597   0.25041144   0.44874928
 22   12.000   0.16680062   0.16684406   0.44858091
 22   12.000   0.16661256   0.16666552   0.37070338
 22   12.000   0.25005920   0.24999977   0.37079832
 22   12.000   0.25000000   0.41666667   0.14067339
 22   12.000   0.16666667   0.33333333   0.14067339
 22   12.000   0.24999777   0.41663995   0.29368516
 22   12.000   0.16672595   0.33332278   0.29351432
 22   12.000   0.16666667   0.33333333   0.21675270
 22   12.000   0.25000000   0.41666667   0.21675270
 22   12.000   0.25080732   0.41719721   0.44958233
 22   12.000   0.16691439   0.33367685   0.44862531
 22   12.000   0.16674962   0.33335636   0.37074198
 22   12.000   0.25009659   0.41665264   0.37113749
 22   12.000   0.25000000   0.58333333   0.14067339
 22   12.000   0.16666667   0.50000000   0.14067339
 22   12.000   0.25001908   0.58333472   0.29372059
 22   12.000   0.16677656   0.49994759   0.29354731
 22   12.000   0.16666667   0.50000000   0.21675270
 22   12.000   0.25000000   0.58333333   0.21675270
 22   12.000   0.25104084   0.58353839   0.44967863
 22   12.000   0.16733786   0.50005318   0.44883810
 22   12.000   0.16675739   0.50003265   0.37085170
 22   12.000   0.25013354   0.58322191   0.37122799
 22   12.000   0.25000000   0.75000000   0.14067339
 22   12.000   0.16666667   0.66666667   0.14067339
 22   12.000   0.24999639   0.74997340   0.29354382
 22   12.000   0.16673467   0.66657857   0.29352633
 22   12.000   0.16666667   0.66666667   0.21675270
 22   12.000   0.25000000   0.75000000   0.21675270
 22   12.000   0.25032062   0.74985104   0.44871776
 22   12.000   0.16687719   0.66642957   0.44861735
 22   12.000   0.16678315   0.66660582   0.37077994
 22   12.000   0.25000927   0.74994769   0.37078940
 22   12.000   0.25000000   0.91666667   0.14067339
 22   12.000   0.16666667   0.83333333   0.14067339
 22   12.000   0.24991944   0.91669536   0.29352940
 22   12.000   0.16664717   0.83331528   0.29350589
 22   12.000   0.16666667   0.83333333   0.21675270
 22   12.000   0.25000000   0.91666667   0.21675270
 22   12.000   0.25003249   0.91667639   0.44859804
 22   12.000   0.16674374   0.83321117   0.44854571
 22   12.000   0.16659686   0.83329815   0.37068759
 22   12.000   0.24995255   0.91662012   0.37068430
 22   12.000   0.41666667   0.08333333   0.14067339
 22   12.000   0.33333333   0.00000000   0.14067339
 22   12.000   0.41666212   0.08336163   0.29353963
 22   12.000   0.33331820   0.00000246   0.29350866
 22   12.000   0.33333333   0.00000000   0.21675270
 22   12.000   0.41666667   0.08333333   0.21675270
 22   12.000   0.41665224   0.08325877   0.44859874
 22   12.000   0.33338920   0.99993763   0.44853037
 22   12.000   0.33325543   0.99995539   0.37065892
 22   12.000   0.41661529   0.08332822   0.37074401
 22   12.000   0.41666667   0.25000000   0.14067339
 22   12.000   0.33333333   0.16666667   0.14067339
 22   12.000   0.41656734   0.24999261   0.29373586
 22   12.000   0.33335390   0.16669638   0.29354426
 22   12.000   0.33333333   0.16666667   0.21675270
 22   12.000   0.41666667   0.25000000   0.21675270
 22   12.000   0.41658239   0.25061747   0.45011281
 22   12.000   0.33351183   0.16685387   0.44846983
 22   12.000   0.33334223   0.16672528   0.37076890
 22   12.000   0.41688739   0.25029469   0.37147443
 22   12.000   0.41666667   0.41666667   0.14067339
 22   12.000   0.33333333   0.33333333   0.14067339
 22   12.000   0.41635365   0.41664138   0.29377839
 22   12.000   0.33319155   0.33332178   0.29373606
 22   12.000   0.33333333   0.33333333   0.21675270
 22   12.000   0.41666667   0.41666667   0.21675270
 22   12.000   0.41529320   0.41673447   0.45052969
 22   12.000   0.33403567   0.33400869   0.45032640
 22   12.000   0.33302792   0.33332914   0.37143066
 22   12.000   0.41667756   0.41657363   0.37162120
 22   12.000   0.41666667   0.58333333   0.14067339
 22   12.000   0.33333333   0.50000000   0.14067339
 22   12.000   0.41636714   0.58319220   0.29385172
 22   12.000   0.33316990   0.50001577   0.29379755
 22   12.000   0.33333333   0.50000000   0.21675270
 22   12.000   0.41666667   0.58333333   0.21675270
 22   12.000   0.41545299   0.58294857   0.45083816
 22   12.000   0.33359301   0.50025596   0.45012843
 22   12.000   0.33305627   0.49994894   0.37155824
 22   12.000   0.41663316   0.58345955   0.37171869
 22   12.000   0.41666667   0.75000000   0.14067339
 22   12.000   0.33333333   0.66666667   0.14067339
 22   12.000   0.41651275   0.74994292   0.29369787
 22   12.000   0.33310846   0.66662142   0.29375128
 22   12.000   0.33333333   0.66666667   0.21675270
 22   12.000   0.41666667   0.75000000   0.21675270
 22   12.000   0.41684608   0.74959878   0.45003158
 22   12.000   0.33392701   0.66629203   0.45050012
 22   12.000   0.33313577   0.66654932   0.37145457
 22   12.000   0.41673498   0.74960925   0.37132276
 22   12.000   0.41666667   0.91666667   0.14067339
 22   12.000   0.33333333   0.83333333   0.14067339
 22   12.000   0.41664268   0.91663298   0.29355508
 22   12.000   0.33328837   0.83331375   0.29352853
 22   12.000   0.33333333   0.83333333   0.21675270
 22   12.000   0.41666667   0.91666667   0.21675270
 22   12.000   0.41684866   0.91662323   0.44865629
 22   12.000   0.33349661   0.83333849   0.44846273
 22   12.000   0.33333291   0.83322753   0.37073205
 22   12.000   0.41664787   0.91659046   0.37076662
 22   12.000   0.58333333   0.08333333   0.14067339
 22   12.000   0.50000000   0.00000000   0.14067339
 22   12.000   0.58335732   0.08336702   0.29355508
 22   12.000   0.50000000   0.00000000   0.29354953
 22   12.000   0.50000000   0.00000000   0.21675270
 22   12.000   0.58333333   0.08333333   0.21675270
 22   12.000   0.58315134   0.08337677   0.44865629
 22   12.000   0.50000000   0.00000000   0.44872890
 22   12.000   0.50000000   0.00000000   0.37078194
 22   12.000   0.58335213   0.08340954   0.37076662
 22   12.000   0.58333333   0.25000000   0.14067339
 22   12.000   0.50000000   0.16666667   0.14067339
 22   12.000   0.58348725   0.25005708   0.29369787
 22   12.000   0.50003413   0.16664251   0.29350016
 22   12.000   0.50000000   0.16666667   0.21675270
 22   12.000   0.58333333   0.25000000   0.21675270
 22   12.000   0.58315392   0.25040122   0.45003158
 22   12.000   0.49974260   0.16699315   0.44915179
 22   12.000   0.50001957   0.16655764   0.37086826
 22   12.000   0.58326502   0.25039075   0.37132276
 22   12.000   0.58333333   0.41666667   0.14067339
 22   12.000   0.50000000   0.33333333   0.14067339
 22   12.000   0.58363286   0.41680780   0.29385172
 22   12.000   0.50001638   0.33329097   0.29243712
 22   12.000   0.50000000   0.33333333   0.21675270
 22   12.000   0.58333333   0.41666667   0.21675270
 22   12.000   0.58454701   0.41705143   0.45083816
 22   12.000   0.49991891   0.33330822   0.44602165
 22   12.000   0.50006398   0.33332857   0.36833843
 22   12.000   0.58336684   0.41654045   0.37171869
 22   12.000   0.58333333   0.58333333   0.14067339
 22   12.000   0.50000000   0.50000000   0.14067339
 22   12.000   0.58364635   0.58335862   0.29377839
 22   12.000   0.50000000   0.50000000   0.29248431
 22   12.000   0.50000000   0.50000000   0.21675270
 22   12.000   0.58333333   0.58333333   0.21675270
 22   12.000   0.58470680   0.58326553   0.45052969
 22   12.000   0.50000000   0.50000000   0.44623780
 22   12.000   0.50000000   0.50000000   0.36869718
 22   12.000   0.58332244   0.58342637   0.37162120
 22   12.000   0.58333333   0.75000000   0.14067339
 22   12.000   0.50000000   0.66666667   0.14067339
 22   12.000   0.58343266   0.75000739   0.29373586
 22   12.000   0.49998362   0.66670903   0.29243712
 22   12.000   0.50000000   0.66666667   0.21675270
 22   12.000   0.58333333   0.75000000   0.21675270
 22   12.000   0.58341761   0.74938253   0.45011281
 22   12.000   0.50008109   0.66669178   0.44602165
 22   12.000   0.49993602   0.66667143   0.36833843
 22   12.000   0.58311261   0.74970531   0.37147443
 22   12.000   0.58333333   0.91666667   0.14067339
 22   12.000   0.50000000   0.83333333   0.14067339
 22   12.000   0.58333788   0.91663837   0.29353963
 22   12.000   0.49996587   0.83335749   0.29350016
 22   12.000   0.50000000   0.83333333   0.21675270
 22   12.000   0.58333333   0.91666667   0.21675270
 22   12.000   0.58334776   0.91674123   0.44859874
 22   12.000   0.50025740   0.83300685   0.44915179
 22   12.000   0.49998043   0.83344236   0.37086826
 22   12.000   0.58338471   0.91667178   0.37074401
 22   12.000   0.75000000   0.08333333   0.14067339
 22   12.000   0.66666667   0.00000000   0.14067339
 22   12.000   0.75008056   0.08330464   0.29352940
 22   12.000   0.66668180   0.99999754   0.29350866
 22   12.000   0.66666667   0.00000000   0.21675270
 22   12.000   0.75000000   0.08333333   0.21675270
 22   12.000   0.74996751   0.08332361   0.44859804
 22   12.000   0.66661080   0.00006237   0.44853037
 22   12.000   0.66674457   0.00004461   0.37065892
 22   12.000   0.75004745   0.08337988   0.37068430
 22   12.000   0.75000000   0.25000000   0.14067339
 22   12.000   0.66666667   0.16666667   0.14067339
 22   12.000   0.75000361   0.25002660   0.29354382
 22   12.000   0.66671163   0.16668625   0.29352853
 22   12.000   0.66666667   0.16666667   0.21675270
 22   12.000   0.75000000   0.25000000   0.21675270
 22   12.000   0.74967938   0.25014896   0.44871776
 22   12.000   0.66650339   0.16666151   0.44846273
 22   12.000   0.66666709   0.16677247   0.37073205
 22   12.000   0.74999073   0.25005231   0.37078940
 22   12.000   0.75000000   0.41666667   0.14067339
 22   12.000   0.66666667   0.33333333   0.14067339
 22   12.000   0.74998092   0.41666528   0.29372059
 22   12.000   0.66689154   0.33337858   0.29375128
 22   12.000   0.66666667   0.33333333   0.21675270
 22   12.000   0.75000000   0.41666667   0.21675270
 22   12.000   0.74895916   0.41646161   0.44967863
 22   12.000   0.66607299   0.33370797   0.45050012
 22   12.000   0.66686423   0.33345068   0.37145457
 22   12.000   0.74986646   0.41677809   0.37122799
 22   12.000   0.75000000   0.58333333   0.14067339
 22   12.000   0.66666667   0.50000000   0.14067339
 22   12.000   0.75000223   0.58336005   0.29368516
 22   12.000   0.66683010   0.49998423   0.29379755
 22   12.000   0.66666667   0.50000000   0.21675270
 22   12.000   0.75000000   0.58333333   0.21675270
 22   12.000   0.74919268   0.58280279   0.44958233
 22   12.000   0.66640699   0.49974404   0.45012843
 22   12.000   0.66694373   0.50005106   0.37155824
 22   12.000   0.74990341   0.58334736   0.37113749
 22   12.000   0.75000000   0.75000000   0.14067339
 22   12.000   0.66666667   0.66666667   0.14067339
 22   12.000   0.75001578   0.75004632   0.29356937
 22   12.000   0.66680845   0.66667822   0.29373606
 22   12.000   0.66666667   0.66666667   0.21675270
 22   12.000   0.75000000   0.75000000   0.21675270
 22   12.000   0.74975403   0.74958856   0.44874928
 22   12.000   0.66596433   0.66599131   0.45032640
 22   12.000   0.66697208   0.66667086   0.37143066
 22   12.000   0.74994080   0.75000023   0.37079832
 22   12.000   0.75000000   0.91666667   0.14067339
 22   12.000   0.66666667   0.83333333   0.14067339
 22   12.000   0.75006834   0.91669825   0.29352414
 22   12.000   0.66664610   0.83330362   0.29354426
 22   12.000   0.66666667   0.83333333   0.21675270
 22   12.000   0.75000000   0.91666667   0.21675270
 22   12.000   0.74992144   0.91654689   0.44857831
 22   12.000   0.66648817   0.83314613   0.44846983
 22   12.000   0.66665777   0.83327472   0.37076890
 22   12.000   0.75002237   0.91662971   0.37066534
 22   12.000   0.91666667   0.08333333   0.14067339
 22   12.000   0.83333333   0.00000000   0.14067339
 22   12.000   0.91670121   0.08334938   0.29351506
 22   12.000   0.83340412   0.99997925   0.29350279
 22   12.000   0.83333333   0.00000000   0.21675270
 22   12.000   0.91666667   0.08333333   0.21675270
 22   12.000   0.91662678   0.08338267   0.44861266
 22   12.000   0.83329030   0.99995934   0.44855607
 22   12.000   0.83338921   0.99999570   0.37067790
 22   12.000   0.91669729   0.08333129   0.37068377
 22   12.000   0.91666667   0.25000000   0.14067339
 22   12.000   0.83333333   0.16666667   0.14067339
 22   12.000   0.91664804   0.25005339   0.29352797
 22   12.000   0.83335283   0.16668472   0.29350589
 22   12.000   0.83333333   0.16666667   0.21675270
 22   12.000   0.91666667   0.25000000   0.21675270
 22   12.000   0.91656812   0.25016838   0.44864622
 22   12.000   0.83325626   0.16678883   0.44854571
 22   12.000   0.83340314   0.16670185   0.37068759
 22   12.000   0.91664544   0.25007765   0.37070955
 22   12.000   0.91666667   0.41666667   0.14067339
 22   12.000   0.83333333   0.33333333   0.14067339
 22   12.000   0.91661491   0.41669282   0.29354521
 22   12.000   0.83326533   0.33342143   0.29352633
 22   12.000   0.83333333   0.33333333   0.21675270
 22   12.000   0.91666667   0.41666667   0.21675270
 22   12.000   0.91651057   0.41676982   0.44868451
 22   12.000   0.83312281   0.33357043   0.44861735
 22   12.000   0.83321685   0.33339418   0.37077994
 22   12.000   0.91657072   0.41669358   0.37074733
 22   12.000   0.91666667   0.58333333   0.14067339
 22   12.000   0.83333333   0.50000000   0.14067339
 22   12.000   0.91662311   0.58330504   0.29354276
 22   12.000   0.83322344   0.50005241   0.29354731
 22   12.000   0.83333333   0.50000000   0.21675270
 22   12.000   0.91666667   0.58333333   0.21675270
 22   12.000   0.91654244   0.58304430   0.44868668
 22   12.000   0.83266214   0.49994682   0.44883810
 22   12.000   0.83324261   0.49996735   0.37085170
 22   12.000   0.91657070   0.58330933   0.37075938
 22   12.000   0.91666667   0.75000000   0.14067339
 22   12.000   0.83333333   0.66666667   0.14067339
 22   12.000   0.91667656   0.74996506   0.29352785
 22   12.000   0.83327405   0.66667722   0.29351432
 22   12.000   0.83333333   0.66666667   0.21675270
 22   12.000   0.91666667   0.75000000   0.21675270
 22   12.000   0.91660919   0.74978106   0.44864321
 22   12.000   0.83308561   0.66632315   0.44862531
 22   12.000   0.83325038   0.66664364   0.37074198
 22   12.000   0.91665748   0.74994856   0.37071911
 22   12.000   0.91666667   0.91666667   0.14067339
 22   12.000   0.83333333   0.83333333   0.14067339
 22   12.000   0.91672178   0.91665025   0.29351740
 22   12.000   0.83336129   0.83332355   0.29351182
 22   12.000   0.83333333   0.83333333   0.21675270
 22   12.000   0.91666667   0.91666667   0.21675270
 22   12.000   0.91663812   0.91655429   0.44862025
 22   12.000   0.83319938   0.83315594   0.44858091
 22   12.000   0.83338744   0.83333448   0.37070338
 22   12.000   0.91671006   0.91664548   0.37068954
