78	10	-18.61380233	-18.61380233	0
78	10	-18.61380233	-14.89104186	-3.722760466
78	10	-18.61380233	-11.1682814	-7.445520931
78	10	-18.61380233	-14.89104186	3.722760466
78	10	-18.61380233	-11.1682814	0
78	10	-18.61380233	-11.1682814	7.445520931
78	10	-18.61380233	-7.445520931	-11.1682814
78	10	-18.61380233	-3.722760466	-14.89104186
78	10	-18.61380233	-7.445520931	-3.722760466
78	10	-18.61380233	-3.722760466	-7.445520931
78	10	-18.61380233	-7.445520931	3.722760466
78	10	-18.61380233	-3.722760466	0
78	10	-18.61380233	-7.445520931	11.1682814
78	10	-18.61380233	-3.722760466	7.445520931
78	10	-18.61380233	-3.722760466	14.89104186
78	10	-18.61380233	0	-18.61380233
78	10	-18.61380233	0	-11.1682814
78	10	-18.61380233	3.722760466	-14.89104186
78	10	-18.61380233	0	-3.722760466
78	10	-18.61380233	3.722760466	-7.445520931
78	10	-18.61380233	0	3.722760466
78	10	-18.61380233	3.722760466	0
78	10	-18.61380233	0	11.1682814
78	10	-18.61380233	3.722760466	7.445520931
78	10	-18.61380233	0	18.61380233
78	10	-18.61380233	3.722760466	14.89104186
78	10	-18.61380233	7.445520931	-11.1682814
78	10	-18.61380233	7.445520931	-3.722760466
78	10	-18.61380233	11.1682814	-7.445520931
78	10	-18.61380233	7.445520931	3.722760466
78	10	-18.61380233	11.1682814	0
78	10	-18.61380233	7.445520931	11.1682814
78	10	-18.61380233	11.1682814	7.445520931
78	10	-18.61380233	14.89104186	-3.722760466
78	10	-18.61380233	14.89104186	3.722760466
78	10	-18.61380233	18.61380233	0
78	10	-14.89104186	-18.61380233	-3.722760466
78	10	-11.1682814	-18.61380233	-7.445520931
78	10	-14.89104186	-18.61380233	3.722760466
78	10	-11.1682814	-18.61380233	0
78	10	-11.1682814	-18.61380233	7.445520931
78	10	-14.89104186	-11.1682814	-11.1682814
78	10	-11.1682814	-14.89104186	-11.1682814
78	10	-11.1682814	-11.1682814	-14.89104186
78	10	-14.89104186	-14.89104186	-7.445520931
78	10	-14.89104186	-11.1682814	-3.722760466
78	10	-11.1682814	-14.89104186	-3.722760466
78	10	-11.1682814	-11.1682814	-7.445520931
78	10	-14.89104186	-14.89104186	0
78	10	-14.89104186	-11.1682814	3.722760466
78	10	-11.1682814	-14.89104186	3.722760466
78	10	-11.1682814	-11.1682814	0
78	10	-14.89104186	-14.89104186	7.445520931
78	10	-14.89104186	-11.1682814	11.1682814
78	10	-11.1682814	-14.89104186	11.1682814
78	10	-11.1682814	-11.1682814	7.445520931
78	10	-11.1682814	-11.1682814	14.89104186
78	10	-14.89104186	-3.722760466	-18.61380233
78	10	-11.1682814	-7.445520931	-18.61380233
78	10	-14.89104186	-7.445520931	-14.89104186
78	10	-14.89104186	-3.722760466	-11.1682814
78	10	-11.1682814	-7.445520931	-11.1682814
78	10	-11.1682814	-3.722760466	-14.89104186
78	10	-14.89104186	-7.445520931	-7.445520931
78	10	-14.89104186	-3.722760466	-3.722760466
78	10	-11.1682814	-7.445520931	-3.722760466
78	10	-11.1682814	-3.722760466	-7.445520931
78	10	-14.89104186	-7.445520931	0
78	10	-14.89104186	-3.722760466	3.722760466
78	10	-11.1682814	-7.445520931	3.722760466
78	10	-11.1682814	-3.722760466	0
78	10	-14.89104186	-7.445520931	7.445520931
78	10	-14.89104186	-3.722760466	11.1682814
78	10	-11.1682814	-7.445520931	11.1682814
78	10	-11.1682814	-3.722760466	7.445520931
78	10	-14.89104186	-7.445520931	14.89104186
78	10	-14.89104186	-3.722760466	18.61380233
78	10	-11.1682814	-7.445520931	18.61380233
78	10	-11.1682814	-3.722760466	14.89104186
78	10	-14.89104186	3.722760466	-18.61380233
78	10	-11.1682814	0	-18.61380233
78	10	-14.89104186	0	-14.89104186
78	10	-14.89104186	3.722760466	-11.1682814
78	10	-11.1682814	0	-11.1682814
78	10	-11.1682814	3.722760466	-14.89104186
78	10	-14.89104186	0	-7.445520931
78	10	-14.89104186	3.722760466	-3.722760466
78	10	-11.1682814	0	-3.722760466
78	10	-11.1682814	3.722760466	-7.445520931
78	10	-14.89104186	0	0
78	10	-14.89104186	3.722760466	3.722760466
78	10	-11.1682814	0	3.722760466
78	10	-11.1682814	3.722760466	0
78	10	-14.89104186	0	7.445520931
78	10	-14.89104186	3.722760466	11.1682814
78	10	-11.1682814	0	11.1682814
78	10	-11.1682814	3.722760466	7.445520931
78	10	-14.89104186	0	14.89104186
78	10	-14.89104186	3.722760466	18.61380233
78	10	-11.1682814	0	18.61380233
78	10	-11.1682814	3.722760466	14.89104186
78	10	-11.1682814	7.445520931	-18.61380233
78	10	-14.89104186	7.445520931	-14.89104186
78	10	-14.89104186	11.1682814	-11.1682814
78	10	-11.1682814	7.445520931	-11.1682814
78	10	-11.1682814	11.1682814	-14.89104186
78	10	-14.89104186	7.445520931	-7.445520931
78	10	-14.89104186	11.1682814	-3.722760466
78	10	-11.1682814	7.445520931	-3.722760466
78	10	-11.1682814	11.1682814	-7.445520931
78	10	-14.89104186	7.445520931	0
78	10	-14.89104186	11.1682814	3.722760466
78	10	-11.1682814	7.445520931	3.722760466
78	10	-11.1682814	11.1682814	0
78	10	-14.89104186	7.445520931	7.445520931
78	10	-14.89104186	11.1682814	11.1682814
78	10	-11.1682814	7.445520931	11.1682814
78	10	-11.1682814	11.1682814	7.445520931
78	10	-14.89104186	7.445520931	14.89104186
78	10	-11.1682814	7.445520931	18.61380233
78	10	-11.1682814	11.1682814	14.89104186
78	10	-11.1682814	14.89104186	-11.1682814
78	10	-14.89104186	14.89104186	-7.445520931
78	10	-14.89104186	18.61380233	-3.722760466
78	10	-11.1682814	14.89104186	-3.722760466
78	10	-11.1682814	18.61380233	-7.445520931
78	10	-14.89104186	14.89104186	0
78	10	-14.89104186	18.61380233	3.722760466
78	10	-11.1682814	14.89104186	3.722760466
78	10	-11.1682814	18.61380233	0
78	10	-14.89104186	14.89104186	7.445520931
78	10	-11.1682814	14.89104186	11.1682814
78	10	-11.1682814	18.61380233	7.445520931
78	10	-7.445520931	-18.61380233	-11.1682814
78	10	-3.722760466	-18.61380233	-14.89104186
78	10	-7.445520931	-18.61380233	-3.722760466
78	10	-3.722760466	-18.61380233	-7.445520931
78	10	-7.445520931	-18.61380233	3.722760466
78	10	-3.722760466	-18.61380233	0
78	10	-7.445520931	-18.61380233	11.1682814
78	10	-3.722760466	-18.61380233	7.445520931
78	10	-3.722760466	-18.61380233	14.89104186
78	10	-7.445520931	-11.1682814	-18.61380233
78	10	-3.722760466	-14.89104186	-18.61380233
78	10	-7.445520931	-14.89104186	-14.89104186
78	10	-7.445520931	-11.1682814	-11.1682814
78	10	-3.722760466	-14.89104186	-11.1682814
78	10	-3.722760466	-11.1682814	-14.89104186
78	10	-7.445520931	-14.89104186	-7.445520931
78	10	-7.445520931	-11.1682814	-3.722760466
78	10	-3.722760466	-14.89104186	-3.722760466
78	10	-3.722760466	-11.1682814	-7.445520931
78	10	-7.445520931	-14.89104186	0
78	10	-7.445520931	-11.1682814	3.722760466
78	10	-3.722760466	-14.89104186	3.722760466
78	10	-3.722760466	-11.1682814	0
78	10	-7.445520931	-14.89104186	7.445520931
78	10	-7.445520931	-11.1682814	11.1682814
78	10	-3.722760466	-14.89104186	11.1682814
78	10	-3.722760466	-11.1682814	7.445520931
78	10	-7.445520931	-14.89104186	14.89104186
78	10	-7.445520931	-11.1682814	18.61380233
78	10	-3.722760466	-14.89104186	18.61380233
78	10	-3.722760466	-11.1682814	14.89104186
78	10	-7.445520931	-3.722760466	-18.61380233
78	10	-3.722760466	-7.445520931	-18.61380233
78	10	-7.445520931	-7.445520931	-14.89104186
78	10	-7.445520931	-3.722760466	-11.1682814
78	10	-3.722760466	-7.445520931	-11.1682814
78	10	-3.722760466	-3.722760466	-14.89104186
78	10	-7.445520931	-7.445520931	-7.445520931
78	10	-7.445520931	-3.722760466	-3.722760466
78	10	-3.722760466	-7.445520931	-3.722760466
78	10	-3.722760466	-3.722760466	-7.445520931
78	10	-7.445520931	-7.445520931	0
78	10	-7.445520931	-3.722760466	3.722760466
78	10	-3.722760466	-7.445520931	3.722760466
78	10	-3.722760466	-3.722760466	0
78	10	-7.445520931	-7.445520931	7.445520931
78	10	-7.445520931	-3.722760466	11.1682814
78	10	-3.722760466	-7.445520931	11.1682814
78	10	-3.722760466	-3.722760466	7.445520931
78	10	-7.445520931	-7.445520931	14.89104186
78	10	-7.445520931	-3.722760466	18.61380233
78	10	-3.722760466	-7.445520931	18.61380233
78	10	-3.722760466	-3.722760466	14.89104186
78	10	-7.445520931	3.722760466	-18.61380233
78	10	-3.722760466	0	-18.61380233
78	10	-7.445520931	0	-14.89104186
78	10	-7.445520931	3.722760466	-11.1682814
78	10	-3.722760466	0	-11.1682814
78	10	-3.722760466	3.722760466	-14.89104186
78	10	-7.445520931	0	-7.445520931
78	10	-7.445520931	3.722760466	-3.722760466
78	10	-3.722760466	0	-3.722760466
78	10	-3.722760466	3.722760466	-7.445520931
78	10	-7.445520931	0	0
78	10	-7.445520931	3.722760466	3.722760466
78	10	-3.722760466	0	3.722760466
78	10	-3.722760466	3.722760466	0
78	10	-7.445520931	0	7.445520931
78	10	-7.445520931	3.722760466	11.1682814
78	10	-3.722760466	0	11.1682814
78	10	-3.722760466	3.722760466	7.445520931
78	10	-7.445520931	0	14.89104186
78	10	-7.445520931	3.722760466	18.61380233
78	10	-3.722760466	0	18.61380233
78	10	-3.722760466	3.722760466	14.89104186
78	10	-7.445520931	11.1682814	-18.61380233
78	10	-3.722760466	7.445520931	-18.61380233
78	10	-7.445520931	7.445520931	-14.89104186
78	10	-7.445520931	11.1682814	-11.1682814
78	10	-3.722760466	7.445520931	-11.1682814
78	10	-3.722760466	11.1682814	-14.89104186
78	10	-7.445520931	7.445520931	-7.445520931
78	10	-7.445520931	11.1682814	-3.722760466
78	10	-3.722760466	7.445520931	-3.722760466
78	10	-3.722760466	11.1682814	-7.445520931
78	10	-7.445520931	7.445520931	0
78	10	-7.445520931	11.1682814	3.722760466
78	10	-3.722760466	7.445520931	3.722760466
78	10	-3.722760466	11.1682814	0
78	10	-7.445520931	7.445520931	7.445520931
78	10	-7.445520931	11.1682814	11.1682814
78	10	-3.722760466	7.445520931	11.1682814
78	10	-3.722760466	11.1682814	7.445520931
78	10	-7.445520931	7.445520931	14.89104186
78	10	-7.445520931	11.1682814	18.61380233
78	10	-3.722760466	7.445520931	18.61380233
78	10	-3.722760466	11.1682814	14.89104186
78	10	-3.722760466	14.89104186	-18.61380233
78	10	-7.445520931	14.89104186	-14.89104186
78	10	-7.445520931	18.61380233	-11.1682814
78	10	-3.722760466	14.89104186	-11.1682814
78	10	-3.722760466	18.61380233	-14.89104186
78	10	-7.445520931	14.89104186	-7.445520931
78	10	-7.445520931	18.61380233	-3.722760466
78	10	-3.722760466	14.89104186	-3.722760466
78	10	-3.722760466	18.61380233	-7.445520931
78	10	-7.445520931	14.89104186	0
78	10	-7.445520931	18.61380233	3.722760466
78	10	-3.722760466	14.89104186	3.722760466
78	10	-3.722760466	18.61380233	0
78	10	-7.445520931	14.89104186	7.445520931
78	10	-7.445520931	18.61380233	11.1682814
78	10	-3.722760466	14.89104186	11.1682814
78	10	-3.722760466	18.61380233	7.445520931
78	10	-7.445520931	14.89104186	14.89104186
78	10	-3.722760466	14.89104186	18.61380233
78	10	-3.722760466	18.61380233	14.89104186
78	10	0	-18.61380233	-18.61380233
78	10	0	-18.61380233	-11.1682814
78	10	3.722760466	-18.61380233	-14.89104186
78	10	0	-18.61380233	-3.722760466
78	10	3.722760466	-18.61380233	-7.445520931
78	10	0	-18.61380233	3.722760466
78	10	3.722760466	-18.61380233	0
78	10	0	-18.61380233	11.1682814
78	10	3.722760466	-18.61380233	7.445520931
78	10	0	-18.61380233	18.61380233
78	10	3.722760466	-18.61380233	14.89104186
78	10	0	-11.1682814	-18.61380233
78	10	3.722760466	-14.89104186	-18.61380233
78	10	0	-14.89104186	-14.89104186
78	10	0	-11.1682814	-11.1682814
78	10	3.722760466	-14.89104186	-11.1682814
78	10	3.722760466	-11.1682814	-14.89104186
78	10	0	-14.89104186	-7.445520931
78	10	0	-11.1682814	-3.722760466
78	10	3.722760466	-14.89104186	-3.722760466
78	10	3.722760466	-11.1682814	-7.445520931
78	10	0	-14.89104186	0
78	10	0	-11.1682814	3.722760466
78	10	3.722760466	-14.89104186	3.722760466
78	10	3.722760466	-11.1682814	0
78	10	0	-14.89104186	7.445520931
78	10	0	-11.1682814	11.1682814
78	10	3.722760466	-14.89104186	11.1682814
78	10	3.722760466	-11.1682814	7.445520931
78	10	0	-14.89104186	14.89104186
78	10	0	-11.1682814	18.61380233
78	10	3.722760466	-14.89104186	18.61380233
78	10	3.722760466	-11.1682814	14.89104186
78	10	0	-3.722760466	-18.61380233
78	10	3.722760466	-7.445520931	-18.61380233
78	10	0	-7.445520931	-14.89104186
78	10	0	-3.722760466	-11.1682814
78	10	3.722760466	-7.445520931	-11.1682814
78	10	3.722760466	-3.722760466	-14.89104186
78	10	0	-7.445520931	-7.445520931
78	10	0	-3.722760466	-3.722760466
78	10	3.722760466	-7.445520931	-3.722760466
78	10	3.722760466	-3.722760466	-7.445520931
78	10	0	-7.445520931	0
78	10	0	-3.722760466	3.722760466
78	10	3.722760466	-7.445520931	3.722760466
78	10	3.722760466	-3.722760466	0
78	10	0	-7.445520931	7.445520931
78	10	0	-3.722760466	11.1682814
78	10	3.722760466	-7.445520931	11.1682814
78	10	3.722760466	-3.722760466	7.445520931
78	10	0	-7.445520931	14.89104186
78	10	0	-3.722760466	18.61380233
78	10	3.722760466	-7.445520931	18.61380233
78	10	3.722760466	-3.722760466	14.89104186
78	10	0	3.722760466	-18.61380233
78	10	3.722760466	0	-18.61380233
78	10	0	0	-14.89104186
78	10	0	3.722760466	-11.1682814
78	10	3.722760466	0	-11.1682814
78	10	3.722760466	3.722760466	-14.89104186
78	10	0	0	-7.445520931
78	10	0	3.722760466	-3.722760466
78	10	3.722760466	0	-3.722760466
78	10	3.722760466	3.722760466	-7.445520931
78	10	0	0	0
78	10	0	3.722760466	3.722760466
78	10	3.722760466	0	3.722760466
78	10	3.722760466	3.722760466	0
78	10	0	0	7.445520931
78	10	0	3.722760466	11.1682814
78	10	3.722760466	0	11.1682814
78	10	3.722760466	3.722760466	7.445520931
78	10	0	0	14.89104186
78	10	0	3.722760466	18.61380233
78	10	3.722760466	0	18.61380233
78	10	3.722760466	3.722760466	14.89104186
78	10	0	11.1682814	-18.61380233
78	10	3.722760466	7.445520931	-18.61380233
78	10	0	7.445520931	-14.89104186
78	10	0	11.1682814	-11.1682814
78	10	3.722760466	7.445520931	-11.1682814
78	10	3.722760466	11.1682814	-14.89104186
78	10	0	7.445520931	-7.445520931
78	10	0	11.1682814	-3.722760466
78	10	3.722760466	7.445520931	-3.722760466
78	10	3.722760466	11.1682814	-7.445520931
78	10	0	7.445520931	0
78	10	0	11.1682814	3.722760466
78	10	3.722760466	7.445520931	3.722760466
78	10	3.722760466	11.1682814	0
78	10	0	7.445520931	7.445520931
78	10	0	11.1682814	11.1682814
78	10	3.722760466	7.445520931	11.1682814
78	10	3.722760466	11.1682814	7.445520931
78	10	0	7.445520931	14.89104186
78	10	0	11.1682814	18.61380233
78	10	3.722760466	7.445520931	18.61380233
78	10	3.722760466	11.1682814	14.89104186
78	10	0	18.61380233	-18.61380233
78	10	3.722760466	14.89104186	-18.61380233
78	10	0	14.89104186	-14.89104186
78	10	0	18.61380233	-11.1682814
78	10	3.722760466	14.89104186	-11.1682814
78	10	3.722760466	18.61380233	-14.89104186
78	10	0	14.89104186	-7.445520931
78	10	0	18.61380233	-3.722760466
78	10	3.722760466	14.89104186	-3.722760466
78	10	3.722760466	18.61380233	-7.445520931
78	10	0	14.89104186	0
78	10	0	18.61380233	3.722760466
78	10	3.722760466	14.89104186	3.722760466
78	10	3.722760466	18.61380233	0
78	10	0	14.89104186	7.445520931
78	10	0	18.61380233	11.1682814
78	10	3.722760466	14.89104186	11.1682814
78	10	3.722760466	18.61380233	7.445520931
78	10	0	14.89104186	14.89104186
78	10	0	18.61380233	18.61380233
78	10	3.722760466	14.89104186	18.61380233
78	10	3.722760466	18.61380233	14.89104186
78	10	7.445520931	-18.61380233	-11.1682814
78	10	7.445520931	-18.61380233	-3.722760466
78	10	11.1682814	-18.61380233	-7.445520931
78	10	7.445520931	-18.61380233	3.722760466
78	10	11.1682814	-18.61380233	0
78	10	7.445520931	-18.61380233	11.1682814
78	10	11.1682814	-18.61380233	7.445520931
78	10	7.445520931	-11.1682814	-18.61380233
78	10	7.445520931	-14.89104186	-14.89104186
78	10	7.445520931	-11.1682814	-11.1682814
78	10	11.1682814	-14.89104186	-11.1682814
78	10	11.1682814	-11.1682814	-14.89104186
78	10	7.445520931	-14.89104186	-7.445520931
78	10	7.445520931	-11.1682814	-3.722760466
78	10	11.1682814	-14.89104186	-3.722760466
78	10	11.1682814	-11.1682814	-7.445520931
78	10	7.445520931	-14.89104186	0
78	10	7.445520931	-11.1682814	3.722760466
78	10	11.1682814	-14.89104186	3.722760466
78	10	11.1682814	-11.1682814	0
78	10	7.445520931	-14.89104186	7.445520931
78	10	7.445520931	-11.1682814	11.1682814
78	10	11.1682814	-14.89104186	11.1682814
78	10	11.1682814	-11.1682814	7.445520931
78	10	7.445520931	-14.89104186	14.89104186
78	10	7.445520931	-11.1682814	18.61380233
78	10	11.1682814	-11.1682814	14.89104186
78	10	7.445520931	-3.722760466	-18.61380233
78	10	11.1682814	-7.445520931	-18.61380233
78	10	7.445520931	-7.445520931	-14.89104186
78	10	7.445520931	-3.722760466	-11.1682814
78	10	11.1682814	-7.445520931	-11.1682814
78	10	11.1682814	-3.722760466	-14.89104186
78	10	7.445520931	-7.445520931	-7.445520931
78	10	7.445520931	-3.722760466	-3.722760466
78	10	11.1682814	-7.445520931	-3.722760466
78	10	11.1682814	-3.722760466	-7.445520931
78	10	7.445520931	-7.445520931	0
78	10	7.445520931	-3.722760466	3.722760466
78	10	11.1682814	-7.445520931	3.722760466
78	10	11.1682814	-3.722760466	0
78	10	7.445520931	-7.445520931	7.445520931
78	10	7.445520931	-3.722760466	11.1682814
78	10	11.1682814	-7.445520931	11.1682814
78	10	11.1682814	-3.722760466	7.445520931
78	10	7.445520931	-7.445520931	14.89104186
78	10	7.445520931	-3.722760466	18.61380233
78	10	11.1682814	-7.445520931	18.61380233
78	10	11.1682814	-3.722760466	14.89104186
78	10	7.445520931	3.722760466	-18.61380233
78	10	11.1682814	0	-18.61380233
78	10	7.445520931	0	-14.89104186
78	10	7.445520931	3.722760466	-11.1682814
78	10	11.1682814	0	-11.1682814
78	10	11.1682814	3.722760466	-14.89104186
78	10	7.445520931	0	-7.445520931
78	10	7.445520931	3.722760466	-3.722760466
78	10	11.1682814	0	-3.722760466
78	10	11.1682814	3.722760466	-7.445520931
78	10	7.445520931	0	0
78	10	7.445520931	3.722760466	3.722760466
78	10	11.1682814	0	3.722760466
78	10	11.1682814	3.722760466	0
78	10	7.445520931	0	7.445520931
78	10	7.445520931	3.722760466	11.1682814
78	10	11.1682814	0	11.1682814
78	10	11.1682814	3.722760466	7.445520931
78	10	7.445520931	0	14.89104186
78	10	7.445520931	3.722760466	18.61380233
78	10	11.1682814	0	18.61380233
78	10	11.1682814	3.722760466	14.89104186
78	10	7.445520931	11.1682814	-18.61380233
78	10	11.1682814	7.445520931	-18.61380233
78	10	7.445520931	7.445520931	-14.89104186
78	10	7.445520931	11.1682814	-11.1682814
78	10	11.1682814	7.445520931	-11.1682814
78	10	11.1682814	11.1682814	-14.89104186
78	10	7.445520931	7.445520931	-7.445520931
78	10	7.445520931	11.1682814	-3.722760466
78	10	11.1682814	7.445520931	-3.722760466
78	10	11.1682814	11.1682814	-7.445520931
78	10	7.445520931	7.445520931	0
78	10	7.445520931	11.1682814	3.722760466
78	10	11.1682814	7.445520931	3.722760466
78	10	11.1682814	11.1682814	0
78	10	7.445520931	7.445520931	7.445520931
78	10	7.445520931	11.1682814	11.1682814
78	10	11.1682814	7.445520931	11.1682814
78	10	11.1682814	11.1682814	7.445520931
78	10	7.445520931	7.445520931	14.89104186
78	10	7.445520931	11.1682814	18.61380233
78	10	11.1682814	7.445520931	18.61380233
78	10	11.1682814	11.1682814	14.89104186
78	10	7.445520931	14.89104186	-14.89104186
78	10	7.445520931	18.61380233	-11.1682814
78	10	11.1682814	14.89104186	-11.1682814
78	10	7.445520931	14.89104186	-7.445520931
78	10	7.445520931	18.61380233	-3.722760466
78	10	11.1682814	14.89104186	-3.722760466
78	10	11.1682814	18.61380233	-7.445520931
78	10	7.445520931	14.89104186	0
78	10	7.445520931	18.61380233	3.722760466
78	10	11.1682814	14.89104186	3.722760466
78	10	11.1682814	18.61380233	0
78	10	7.445520931	14.89104186	7.445520931
78	10	7.445520931	18.61380233	11.1682814
78	10	11.1682814	14.89104186	11.1682814
78	10	11.1682814	18.61380233	7.445520931
78	10	7.445520931	14.89104186	14.89104186
78	10	14.89104186	-18.61380233	-3.722760466
78	10	14.89104186	-18.61380233	3.722760466
78	10	18.61380233	-18.61380233	0
78	10	14.89104186	-11.1682814	-11.1682814
78	10	14.89104186	-14.89104186	-7.445520931
78	10	14.89104186	-11.1682814	-3.722760466
78	10	18.61380233	-14.89104186	-3.722760466
78	10	18.61380233	-11.1682814	-7.445520931
78	10	14.89104186	-14.89104186	0
78	10	14.89104186	-11.1682814	3.722760466
78	10	18.61380233	-14.89104186	3.722760466
78	10	18.61380233	-11.1682814	0
78	10	14.89104186	-14.89104186	7.445520931
78	10	14.89104186	-11.1682814	11.1682814
78	10	18.61380233	-11.1682814	7.445520931
78	10	14.89104186	-3.722760466	-18.61380233
78	10	14.89104186	-7.445520931	-14.89104186
78	10	14.89104186	-3.722760466	-11.1682814
78	10	18.61380233	-7.445520931	-11.1682814
78	10	18.61380233	-3.722760466	-14.89104186
78	10	14.89104186	-7.445520931	-7.445520931
78	10	14.89104186	-3.722760466	-3.722760466
78	10	18.61380233	-7.445520931	-3.722760466
78	10	18.61380233	-3.722760466	-7.445520931
78	10	14.89104186	-7.445520931	0
78	10	14.89104186	-3.722760466	3.722760466
78	10	18.61380233	-7.445520931	3.722760466
78	10	18.61380233	-3.722760466	0
78	10	14.89104186	-7.445520931	7.445520931
78	10	14.89104186	-3.722760466	11.1682814
78	10	18.61380233	-7.445520931	11.1682814
78	10	18.61380233	-3.722760466	7.445520931
78	10	14.89104186	-7.445520931	14.89104186
78	10	14.89104186	-3.722760466	18.61380233
78	10	18.61380233	-3.722760466	14.89104186
78	10	14.89104186	3.722760466	-18.61380233
78	10	18.61380233	0	-18.61380233
78	10	14.89104186	0	-14.89104186
78	10	14.89104186	3.722760466	-11.1682814
78	10	18.61380233	0	-11.1682814
78	10	18.61380233	3.722760466	-14.89104186
78	10	14.89104186	0	-7.445520931
78	10	14.89104186	3.722760466	-3.722760466
78	10	18.61380233	0	-3.722760466
78	10	18.61380233	3.722760466	-7.445520931
78	10	14.89104186	0	0
78	10	14.89104186	3.722760466	3.722760466
78	10	18.61380233	0	3.722760466
78	10	18.61380233	3.722760466	0
78	10	14.89104186	0	7.445520931
78	10	14.89104186	3.722760466	11.1682814
78	10	18.61380233	0	11.1682814
78	10	18.61380233	3.722760466	7.445520931
78	10	14.89104186	0	14.89104186
78	10	14.89104186	3.722760466	18.61380233
78	10	18.61380233	0	18.61380233
78	10	18.61380233	3.722760466	14.89104186
78	10	14.89104186	7.445520931	-14.89104186
78	10	14.89104186	11.1682814	-11.1682814
78	10	18.61380233	7.445520931	-11.1682814
78	10	14.89104186	7.445520931	-7.445520931
78	10	14.89104186	11.1682814	-3.722760466
78	10	18.61380233	7.445520931	-3.722760466
78	10	18.61380233	11.1682814	-7.445520931
78	10	14.89104186	7.445520931	0
78	10	14.89104186	11.1682814	3.722760466
78	10	18.61380233	7.445520931	3.722760466
78	10	18.61380233	11.1682814	0
78	10	14.89104186	7.445520931	7.445520931
78	10	14.89104186	11.1682814	11.1682814
78	10	18.61380233	7.445520931	11.1682814
78	10	18.61380233	11.1682814	7.445520931
78	10	14.89104186	7.445520931	14.89104186
78	10	14.89104186	14.89104186	-7.445520931
78	10	14.89104186	18.61380233	-3.722760466
78	10	18.61380233	14.89104186	-3.722760466
78	10	14.89104186	14.89104186	0
78	10	14.89104186	18.61380233	3.722760466
78	10	18.61380233	14.89104186	3.722760466
78	10	18.61380233	18.61380233	0
78	10	14.89104186	14.89104186	7.445520931