74	14	0.055555578	0.027777767	0.419135213
74	14	0.055555582	0.694444418	0.419135213
74	14	0.055555578	0.361111104	0.419135213
74	14	0.722222269	0.027777767	0.419135213
74	14	0.722222269	0.694444418	0.419135213
74	14	0.722222269	0.361111104	0.419135213
74	14	0.388888925	0.027777767	0.419135213
74	14	0.388888925	0.694444418	0.419135213
74	14	0.388888925	0.361111104	0.419135213
74	14	0.055555578	0.111111104	0.419135213
74	14	0.05555556	0.777777791	0.419135213
74	14	0.055555578	0.444444448	0.419135213
74	14	0.722222269	0.111111104	0.419135213
74	14	0.722222269	0.777777791	0.419135213
74	14	0.722222269	0.444444448	0.419135213
74	14	0.388888925	0.111111104	0.419135213
74	14	0.388888925	0.777777791	0.419135213
74	14	0.388888925	0.444444448	0.419135213
74	14	0.055555563	0.194444433	0.419135213
74	14	0.055555582	0.861111104	0.419135213
74	14	0.055555563	0.527777791	0.419135213
74	14	0.722222209	0.194444433	0.419135213
74	14	0.722222209	0.861111104	0.419135213
74	14	0.722222209	0.527777791	0.419135213
74	14	0.388888896	0.194444433	0.419135213
74	14	0.388888896	0.861111104	0.419135213
74	14	0.388888896	0.527777791	0.419135213
74	14	0.055555586	0.277777761	0.419135213
74	14	0.055555604	0.944444418	0.419135213
74	14	0.055555586	0.611111104	0.419135213
74	14	0.722222269	0.277777761	0.419135213
74	14	0.722222269	0.944444418	0.419135213
74	14	0.722222269	0.611111104	0.419135213
74	14	0.388888925	0.277777761	0.419135213
74	14	0.388888925	0.944444418	0.419135213
74	14	0.388888925	0.611111104	0.419135213
74	14	0.13888891	0.027777767	0.419135213
74	14	0.13888891	0.694444418	0.419135213
74	14	0.13888891	0.361111104	0.419135213
74	14	0.805555582	0.027777767	0.419135213
74	14	0.805555582	0.694444418	0.419135213
74	14	0.805555582	0.361111104	0.419135213
74	14	0.472222209	0.027777767	0.419135213
74	14	0.472222239	0.694444418	0.419135213
74	14	0.472222239	0.361111104	0.419135213
74	14	0.13888891	0.111111104	0.419135213
74	14	0.13888891	0.777777791	0.419135213
74	14	0.13888891	0.444444448	0.419135213
74	14	0.805555582	0.111111104	0.419135213
74	14	0.805555582	0.777777791	0.419135213
74	14	0.805555582	0.444444448	0.419135213
74	14	0.472222239	0.111111104	0.419135213
74	14	0.472222239	0.777777791	0.419135213
74	14	0.472222269	0.444444448	0.419135213
74	14	0.13888891	0.194444433	0.419135213
74	14	0.13888894	0.861111104	0.419135213
74	14	0.13888891	0.527777791	0.419135213
74	14	0.805555582	0.194444433	0.419135213
74	14	0.805555582	0.861111104	0.419135213
74	14	0.805555582	0.527777791	0.419135213
74	14	0.472222239	0.194444433	0.419135213
74	14	0.472222239	0.861111104	0.419135213
74	14	0.472222239	0.527777791	0.419135213
74	14	0.13888891	0.277777761	0.419135213
74	14	0.138888925	0.944444418	0.419135213
74	14	0.13888891	0.611111104	0.419135213
74	14	0.805555582	0.277777761	0.419135213
74	14	0.805555582	0.944444418	0.419135213
74	14	0.805555582	0.611111104	0.419135213
74	14	0.472222239	0.277777761	0.419135213
74	14	0.472222239	0.944444418	0.419135213
74	14	0.472222239	0.611111104	0.419135213
74	14	0.222222254	0.027777767	0.419135213
74	14	0.222222239	0.694444418	0.419135213
74	14	0.222222254	0.361111104	0.419135213
74	14	0.888888896	0.027777767	0.419135213
74	14	0.888888896	0.694444418	0.419135213
74	14	0.888888896	0.361111104	0.419135213
74	14	0.555555582	0.027777767	0.419135213
74	14	0.555555582	0.694444418	0.419135213
74	14	0.555555582	0.361111104	0.419135213
74	14	0.222222254	0.111111104	0.419135213
74	14	0.222222239	0.777777791	0.419135213
74	14	0.222222254	0.444444448	0.419135213
74	14	0.888888896	0.111111104	0.419135213
74	14	0.888888896	0.777777791	0.419135213
74	14	0.888888896	0.444444448	0.419135213
74	14	0.555555582	0.111111104	0.419135213
74	14	0.555555582	0.777777791	0.419135213
74	14	0.555555582	0.444444448	0.419135213
74	14	0.222222239	0.194444433	0.419135213
74	14	0.222222269	0.861111104	0.419135213
74	14	0.222222254	0.527777791	0.419135213
74	14	0.888888896	0.194444433	0.419135213
74	14	0.888888955	0.861111104	0.419135213
74	14	0.888888896	0.527777791	0.419135213
74	14	0.555555582	0.194444433	0.419135213
74	14	0.555555582	0.861111104	0.419135213
74	14	0.555555582	0.527777791	0.419135213
74	14	0.222222254	0.277777761	0.419135213
74	14	0.222222254	0.944444418	0.419135213
74	14	0.222222254	0.611111104	0.419135213
74	14	0.888888896	0.277777761	0.419135213
74	14	0.888888896	0.944444418	0.419135213
74	14	0.888888896	0.611111104	0.419135213
74	14	0.555555582	0.277777761	0.419135213
74	14	0.555555582	0.944444418	0.419135213
74	14	0.555555582	0.611111104	0.419135213
74	14	0.305555612	0.027777767	0.419135213
74	14	0.305555612	0.694444418	0.419135213
74	14	0.305555612	0.361111104	0.419135213
74	14	0.972222269	0.027777767	0.419135213
74	14	0.972222269	0.694444418	0.419135213
74	14	0.972222269	0.361111104	0.419135213
74	14	0.638888955	0.027777767	0.419135213
74	14	0.638888955	0.694444418	0.419135213
74	14	0.638888955	0.361111104	0.419135213
74	14	0.305555552	0.111111104	0.419135213
74	14	0.305555552	0.777777791	0.419135213
74	14	0.305555552	0.444444448	0.419135213
74	14	0.972222209	0.111111104	0.419135213
74	14	0.972222209	0.777777791	0.419135213
74	14	0.972222209	0.444444448	0.419135213
74	14	0.638888896	0.111111104	0.419135213
74	14	0.638888896	0.777777791	0.419135213
74	14	0.638888896	0.444444448	0.419135213
74	14	0.305555582	0.194444433	0.419135213
74	14	0.305555582	0.861111104	0.419135213
74	14	0.305555582	0.527777791	0.419135213
74	14	0.972222269	0.194444433	0.419135213
74	14	0.972222269	0.861111104	0.419135213
74	14	0.972222269	0.527777791	0.419135213
74	14	0.638888896	0.194444433	0.419135213
74	14	0.638888896	0.861111104	0.419135213
74	14	0.638888896	0.527777791	0.419135213
74	14	0.305555582	0.277777761	0.419135213
74	14	0.305555582	0.944444418	0.419135213
74	14	0.305555582	0.611111104	0.419135213
74	14	0.972222269	0.277777761	0.419135213
74	14	0.972222269	0.944444418	0.419135213
74	14	0.972222269	0.611111104	0.419135213
74	14	0.638888896	0.277777761	0.419135213
74	14	0.638888896	0.944444418	0.419135213
74	14	0.638888896	0.611111104	0.419135213
16	6	0.027777754	0.055555508	0.322311848
16	6	0.027777754	0.722222149	0.322311848
16	6	0.02777775	0.388888836	0.322311848
16	6	0.694444418	0.055555508	0.322311848
16	6	0.694444418	0.722222149	0.322311848
16	6	0.694444418	0.388888836	0.322311848
16	6	0.361111075	0.055555508	0.322311848
16	6	0.361111075	0.722222149	0.322311848
16	6	0.361111075	0.388888836	0.322311848
16	6	0.027777752	0.138888821	0.322311848
16	6	0.02777775	0.805555463	0.322311848
16	6	0.027777761	0.472222149	0.322311848
16	6	0.694444418	0.138888821	0.322311848
16	6	0.694444418	0.805555463	0.322311848
16	6	0.694444418	0.472222149	0.322311848
16	6	0.361111075	0.138888821	0.322311848
16	6	0.361111075	0.805555463	0.322311848
16	6	0.361111075	0.472222149	0.322311848
16	6	0.027777735	0.222222164	0.322311848
16	6	0.027777754	0.888888836	0.322311848
16	6	0.027777735	0.555555522	0.322311848
16	6	0.694444418	0.222222164	0.322311848
16	6	0.694444418	0.888888836	0.322311848
16	6	0.694444418	0.555555522	0.322311848
16	6	0.361111075	0.222222164	0.322311848
16	6	0.361111075	0.888888836	0.322311848
16	6	0.361111075	0.555555522	0.322311848
16	6	0.027777752	0.305555493	0.322311848
16	6	0.027777776	0.972222149	0.322311848
16	6	0.027777757	0.638888836	0.322311848
16	6	0.694444418	0.305555493	0.322311848
16	6	0.694444418	0.972222149	0.322311848
16	6	0.694444418	0.638888836	0.322311848
16	6	0.361111075	0.305555493	0.322311848
16	6	0.361111075	0.972222149	0.322311848
16	6	0.361111075	0.638888836	0.322311848
16	6	0.111111082	0.055555508	0.322311848
16	6	0.111111075	0.722222149	0.322311848
16	6	0.111111075	0.388888836	0.322311848
16	6	0.777777731	0.055555508	0.322311848
16	6	0.777777731	0.722222149	0.322311848
16	6	0.777777731	0.388888836	0.322311848
16	6	0.444444418	0.055555508	0.322311848
16	6	0.444444418	0.722222149	0.322311848
16	6	0.444444418	0.388888836	0.322311848
16	6	0.111111082	0.138888821	0.322311848
16	6	0.111111075	0.805555463	0.322311848
16	6	0.111111082	0.472222149	0.322311848
16	6	0.777777731	0.138888821	0.322311848
16	6	0.777777731	0.805555463	0.322311848
16	6	0.777777731	0.472222149	0.322311848
16	6	0.444444418	0.138888821	0.322311848
16	6	0.444444418	0.805555463	0.322311848
16	6	0.444444418	0.472222149	0.322311848
16	6	0.111111082	0.222222164	0.322311848
16	6	0.111111104	0.888888836	0.322311848
16	6	0.111111082	0.555555522	0.322311848
16	6	0.777777731	0.222222164	0.322311848
16	6	0.777777731	0.888888836	0.322311848
16	6	0.777777731	0.555555522	0.322311848
16	6	0.444444418	0.222222164	0.322311848
16	6	0.444444418	0.888888836	0.322311848
16	6	0.444444418	0.555555522	0.322311848
16	6	0.111111082	0.305555493	0.322311848
16	6	0.111111097	0.972222149	0.322311848
16	6	0.111111082	0.638888836	0.322311848
16	6	0.777777731	0.305555493	0.322311848
16	6	0.777777731	0.972222149	0.322311848
16	6	0.777777731	0.638888836	0.322311848
16	6	0.444444418	0.305555493	0.322311848
16	6	0.444444418	0.972222149	0.322311848
16	6	0.444444418	0.638888836	0.322311848
16	6	0.194444418	0.055555508	0.322311848
16	6	0.194444418	0.722222149	0.322311848
16	6	0.194444418	0.388888836	0.322311848
16	6	0.861111104	0.055555508	0.322311848
16	6	0.861111104	0.722222149	0.322311848
16	6	0.861111104	0.388888836	0.322311848
16	6	0.527777731	0.055555508	0.322311848
16	6	0.527777731	0.722222149	0.322311848
16	6	0.527777731	0.388888836	0.322311848
16	6	0.194444418	0.138888821	0.322311848
16	6	0.194444403	0.805555463	0.322311848
16	6	0.194444418	0.472222149	0.322311848
16	6	0.861111104	0.138888821	0.322311848
16	6	0.861111045	0.805555463	0.322311848
16	6	0.861111104	0.472222149	0.322311848
16	6	0.527777731	0.138888821	0.322311848
16	6	0.527777731	0.805555463	0.322311848
16	6	0.527777731	0.472222149	0.322311848
16	6	0.194444418	0.222222164	0.322311848
16	6	0.194444433	0.888888836	0.322311848
16	6	0.194444418	0.555555522	0.322311848
16	6	0.861111104	0.222222164	0.322311848
16	6	0.861111104	0.888888836	0.322311848
16	6	0.861111104	0.555555522	0.322311848
16	6	0.527777731	0.222222164	0.322311848
16	6	0.527777731	0.888888836	0.322311848
16	6	0.527777731	0.555555522	0.322311848
16	6	0.194444418	0.305555493	0.322311848
16	6	0.194444418	0.972222149	0.322311848
16	6	0.194444418	0.638888836	0.322311848
16	6	0.861111104	0.305555493	0.322311848
16	6	0.861111104	0.972222149	0.322311848
16	6	0.861111104	0.638888836	0.322311848
16	6	0.527777731	0.305555493	0.322311848
16	6	0.527777731	0.972222149	0.322311848
16	6	0.527777731	0.638888836	0.322311848
16	6	0.277777731	0.055555508	0.322311848
16	6	0.277777731	0.722222149	0.322311848
16	6	0.277777731	0.388888836	0.322311848
16	6	0.944444418	0.055555508	0.322311848
16	6	0.944444418	0.722222149	0.322311848
16	6	0.944444418	0.388888836	0.322311848
16	6	0.611111045	0.055555508	0.322311848
16	6	0.611111045	0.722222149	0.322311848
16	6	0.611111045	0.388888836	0.322311848
16	6	0.277777761	0.138888821	0.322311848
16	6	0.277777761	0.805555463	0.322311848
16	6	0.277777761	0.472222149	0.322311848
16	6	0.944444478	0.138888821	0.322311848
16	6	0.944444418	0.805555463	0.322311848
16	6	0.944444418	0.472222149	0.322311848
16	6	0.611111104	0.138888821	0.322311848
16	6	0.611111104	0.805555463	0.322311848
16	6	0.611111104	0.472222149	0.322311848
16	6	0.277777761	0.222222164	0.322311848
16	6	0.277777791	0.888888836	0.322311848
16	6	0.277777761	0.555555522	0.322311848
16	6	0.944444418	0.222222164	0.322311848
16	6	0.944444418	0.888888836	0.322311848
16	6	0.944444418	0.555555522	0.322311848
16	6	0.611111104	0.222222164	0.322311848
16	6	0.611111104	0.888888836	0.322311848
16	6	0.611111104	0.555555522	0.322311848
16	6	0.277777761	0.305555493	0.322311848
16	6	0.277777761	0.972222149	0.322311848
16	6	0.277777761	0.638888836	0.322311848
16	6	0.944444418	0.305555493	0.322311848
16	6	0.944444418	0.972222149	0.322311848
16	6	0.944444418	0.638888836	0.322311848
16	6	0.611111104	0.305555493	0.322311848
16	6	0.611111104	0.972222149	0.322311848
16	6	0.611111104	0.638888836	0.322311848
16	6	0.027777754	0.055555508	0.515958607
16	6	0.027777754	0.722222149	0.515958607
16	6	0.02777775	0.388888836	0.515958607
16	6	0.694444418	0.055555508	0.515958607
16	6	0.694444418	0.722222149	0.515958607
16	6	0.694444418	0.388888836	0.515958607
16	6	0.361111075	0.055555508	0.515958607
16	6	0.361111075	0.722222149	0.515958607
16	6	0.361111075	0.388888836	0.515958607
16	6	0.027777752	0.138888821	0.515958607
16	6	0.02777775	0.805555463	0.515958607
16	6	0.027777761	0.472222149	0.515958607
16	6	0.694444418	0.138888821	0.515958607
16	6	0.694444418	0.805555463	0.515958607
16	6	0.694444418	0.472222149	0.515958607
16	6	0.361111075	0.138888821	0.515958607
16	6	0.361111075	0.805555463	0.515958607
16	6	0.361111075	0.472222149	0.515958607
16	6	0.027777735	0.222222164	0.515958607
16	6	0.027777754	0.888888836	0.515958607
16	6	0.027777735	0.555555522	0.515958607
16	6	0.694444418	0.222222164	0.515958607
16	6	0.694444418	0.888888836	0.515958607
16	6	0.694444418	0.555555522	0.515958607
16	6	0.361111075	0.222222164	0.515958607
16	6	0.361111075	0.888888836	0.515958607
16	6	0.361111075	0.555555522	0.515958607
16	6	0.027777752	0.305555493	0.515958607
16	6	0.027777776	0.972222149	0.515958607
16	6	0.027777757	0.638888836	0.515958607
16	6	0.694444418	0.305555493	0.515958607
16	6	0.694444418	0.972222149	0.515958607
16	6	0.694444418	0.638888836	0.515958607
16	6	0.361111075	0.305555493	0.515958607
16	6	0.361111075	0.972222149	0.515958607
16	6	0.361111075	0.638888836	0.515958607
16	6	0.111111082	0.055555508	0.515958607
16	6	0.111111075	0.722222149	0.515958607
16	6	0.111111075	0.388888836	0.515958607
16	6	0.777777731	0.055555508	0.515958607
16	6	0.777777731	0.722222149	0.515958607
16	6	0.777777731	0.388888836	0.515958607
16	6	0.444444418	0.055555508	0.515958607
16	6	0.444444418	0.722222149	0.515958607
16	6	0.444444418	0.388888836	0.515958607
16	6	0.111111082	0.138888821	0.515958607
16	6	0.111111075	0.805555463	0.515958607
16	6	0.111111082	0.472222149	0.515958607
16	6	0.777777731	0.138888821	0.515958607
16	6	0.777777731	0.805555463	0.515958607
16	6	0.777777731	0.472222149	0.515958607
16	6	0.444444418	0.138888821	0.515958607
16	6	0.444444418	0.805555463	0.515958607
16	6	0.444444418	0.472222149	0.515958607
16	6	0.111111082	0.222222164	0.515958607
16	6	0.111111104	0.888888836	0.515958607
16	6	0.111111082	0.555555522	0.515958607
16	6	0.777777731	0.222222164	0.515958607
16	6	0.777777731	0.888888836	0.515958607
16	6	0.777777731	0.555555522	0.515958607
16	6	0.444444418	0.222222164	0.515958607
16	6	0.444444418	0.888888836	0.515958607
16	6	0.444444418	0.555555522	0.515958607
16	6	0.111111082	0.305555493	0.515958607
16	6	0.111111097	0.972222149	0.515958607
16	6	0.111111082	0.638888836	0.515958607
16	6	0.777777731	0.305555493	0.515958607
16	6	0.777777731	0.972222149	0.515958607
16	6	0.777777731	0.638888836	0.515958607
16	6	0.444444418	0.305555493	0.515958607
16	6	0.444444418	0.972222149	0.515958607
16	6	0.444444418	0.638888836	0.515958607
16	6	0.194444418	0.055555508	0.515958607
16	6	0.194444418	0.722222149	0.515958607
16	6	0.194444418	0.388888836	0.515958607
16	6	0.861111104	0.055555508	0.515958607
16	6	0.861111104	0.722222149	0.515958607
16	6	0.861111104	0.388888836	0.515958607
16	6	0.527777731	0.055555508	0.515958607
16	6	0.527777731	0.722222149	0.515958607
16	6	0.527777731	0.388888836	0.515958607
16	6	0.194444418	0.138888821	0.515958607
16	6	0.194444403	0.805555463	0.515958607
16	6	0.194444418	0.472222149	0.515958607
16	6	0.861111104	0.138888821	0.515958607
16	6	0.861111045	0.805555463	0.515958607
16	6	0.861111104	0.472222149	0.515958607
16	6	0.527777731	0.138888821	0.515958607
16	6	0.527777731	0.805555463	0.515958607
16	6	0.527777731	0.472222149	0.515958607
16	6	0.194444418	0.222222164	0.515958607
16	6	0.194444433	0.888888836	0.515958607
16	6	0.194444418	0.555555522	0.515958607
16	6	0.861111104	0.222222164	0.515958607
16	6	0.861111104	0.888888836	0.515958607
16	6	0.861111104	0.555555522	0.515958607
16	6	0.527777731	0.222222164	0.515958607
16	6	0.527777731	0.888888836	0.515958607
16	6	0.527777731	0.555555522	0.515958607
16	6	0.194444418	0.305555493	0.515958607
16	6	0.194444418	0.972222149	0.515958607
16	6	0.194444418	0.638888836	0.515958607
16	6	0.861111104	0.305555493	0.515958607
16	6	0.861111104	0.972222149	0.515958607
16	6	0.861111104	0.638888836	0.515958607
16	6	0.527777731	0.305555493	0.515958607
16	6	0.527777731	0.972222149	0.515958607
16	6	0.527777731	0.638888836	0.515958607
16	6	0.277777731	0.055555508	0.515958607
16	6	0.277777731	0.722222149	0.515958607
16	6	0.277777731	0.388888836	0.515958607
16	6	0.944444418	0.055555508	0.515958607
16	6	0.944444418	0.722222149	0.515958607
16	6	0.944444418	0.388888836	0.515958607
16	6	0.611111045	0.055555508	0.515958607
16	6	0.611111045	0.722222149	0.515958607
16	6	0.611111045	0.388888836	0.515958607
16	6	0.277777761	0.138888821	0.515958607
16	6	0.277777761	0.805555463	0.515958607
16	6	0.277777761	0.472222149	0.515958607
16	6	0.944444478	0.138888821	0.515958607
16	6	0.944444418	0.805555463	0.515958607
16	6	0.944444418	0.472222149	0.515958607
16	6	0.611111104	0.138888821	0.515958607
16	6	0.611111104	0.805555463	0.515958607
16	6	0.611111104	0.472222149	0.515958607
16	6	0.277777761	0.222222164	0.515958607
16	6	0.277777791	0.888888836	0.515958607
16	6	0.277777761	0.555555522	0.515958607
16	6	0.944444418	0.222222164	0.515958607
16	6	0.944444418	0.888888836	0.515958607
16	6	0.944444418	0.555555522	0.515958607
16	6	0.611111104	0.222222164	0.515958607
16	6	0.611111104	0.888888836	0.515958607
16	6	0.611111104	0.555555522	0.515958607
16	6	0.277777761	0.305555493	0.515958607
16	6	0.277777761	0.972222149	0.515958607
16	6	0.277777761	0.638888836	0.515958607
16	6	0.944444418	0.305555493	0.515958607
16	6	0.944444418	0.972222149	0.515958607
16	6	0.944444418	0.638888836	0.515958607
16	6	0.611111104	0.305555493	0.515958607
16	6	0.611111104	0.972222149	0.515958607
16	6	0.611111104	0.638888836	0.515958607
52	6	0.449266583	0.319444418	0.677688122
52	6	0.582790494	0.319444418	0.677688122
52	6	0.248980731	0.319444418	0.677688122
52	6	0.315742671	0.319444418	0.677688122
52	6	0.382504642	0.319444418	0.677688122
52	6	0.516028523	0.319444418	0.677688122
52	6	0.649552405	0.319444418	0.677688122
52	6	0.182218775	0.319444418	0.677688122