52	6	0.999354793	0.016775378	0.343556924
52	6	0.018211467	0.026501865	0.353216601
52	6	0.037816332	0.016775378	0.343556924
52	6	0.056673005	0.026501865	0.353216601
52	6	0.036776831	0.043802405	0.343556924
52	6	0.055633504	0.053528892	0.353216601
52	6	0.03573733	0.070829432	0.343556924
52	6	0.054594003	0.080555919	0.353216601
52	6	0.034697828	0.097856459	0.343556924
52	6	0.053554502	0.107582946	0.353216601
52	6	0.033658327	0.124883486	0.343556924
52	6	0.052515001	0.134609973	0.353216601
52	6	0.032618826	0.151910514	0.343556924
52	6	0.0514755	0.161637	0.353216601
52	6	0.031579325	0.178937541	0.343556924
52	6	0.050435999	0.188664027	0.353216601
52	6	0.030539824	0.205964568	0.343556924
52	6	0.049396498	0.215691054	0.353216601
52	6	0.029500323	0.232991595	0.343556924
52	6	0.048356997	0.242718081	0.353216601
52	6	0.028460822	0.260018622	0.343556924
52	6	0.047317496	0.269745108	0.353216601
52	6	0.027421321	0.287045649	0.343556924
52	6	0.046277995	0.296772135	0.353216601
52	6	0.02638182	0.314072676	0.343556924
52	6	0.045238494	0.323799162	0.353216601
52	6	0.025342319	0.341099703	0.343556924
52	6	0.044198993	0.350826189	0.353216601
52	6	0.024302818	0.36812673	0.343556924
52	6	0.043159492	0.377853216	0.353216601
52	6	0.023263317	0.395153757	0.343556924
52	6	0.042119991	0.404880243	0.353216601
52	6	0.022223816	0.422180784	0.343556924
52	6	0.04108049	0.43190727	0.353216601
52	6	0.021184315	0.449207811	0.343556924
52	6	0.040040989	0.458934297	0.353216601
52	6	0.020144814	0.476234838	0.343556924
52	6	0.039001488	0.485961324	0.353216601
52	6	0.019105313	0.503261865	0.343556924
52	6	0.037961986	0.512988351	0.353216601
52	6	0.018065812	0.530288892	0.343556924
52	6	0.036922485	0.540015378	0.353216601
52	6	0.017026311	0.557315919	0.343556924
52	6	0.035882984	0.567042405	0.353216601
52	6	0.01598681	0.584342946	0.343556924
52	6	0.034843483	0.594069432	0.353216601
52	6	0.014947309	0.611369973	0.343556924
52	6	0.033803982	0.621096459	0.353216601
52	6	0.013907808	0.638397	0.343556924
52	6	0.032764481	0.648123486	0.353216601
52	6	0.012868307	0.665424027	0.343556924
52	6	0.03172498	0.675150514	0.353216601
52	6	0.011828806	0.692451054	0.343556924
52	6	0.030685479	0.702177541	0.353216601
52	6	0.010789305	0.719478081	0.343556924
52	6	0.029645978	0.729204568	0.353216601
52	6	0.009749804	0.746505108	0.343556924
52	6	0.028606477	0.756231595	0.353216601
52	6	0.008710302	0.773532135	0.343556924
52	6	0.027566976	0.783258622	0.353216601
52	6	0.007670801	0.800559162	0.343556924
52	6	0.026527475	0.810285649	0.353216601
52	6	0.0066313	0.827586189	0.343556924
52	6	0.025487974	0.837312676	0.353216601
52	6	0.005591799	0.854613216	0.343556924
52	6	0.024448473	0.864339703	0.353216601
52	6	0.004552298	0.881640243	0.343556924
52	6	0.023408972	0.89136673	0.353216601
52	6	0.003512797	0.90866727	0.343556924
52	6	0.022369471	0.918393757	0.353216601
52	6	0.002473296	0.935694297	0.343556924
52	6	0.02132997	0.945420784	0.353216601
52	6	0.001433795	0.962721324	0.343556924
52	6	0.020290469	0.972447811	0.353216601
52	6	0.000394294	0.989748351	0.343556924
52	6	0.019250968	0.999474838	0.353216601
52	6	0.07627787	0.016775378	0.343556924
52	6	0.095134544	0.026501865	0.353216601
52	6	0.075238369	0.043802405	0.343556924
52	6	0.094095043	0.053528892	0.353216601
52	6	0.074198868	0.070829432	0.343556924
52	6	0.093055542	0.080555919	0.353216601
52	6	0.073159367	0.097856459	0.343556924
52	6	0.092016041	0.107582946	0.353216601
52	6	0.072119866	0.124883486	0.343556924
52	6	0.09097654	0.134609973	0.353216601
52	6	0.071080365	0.151910514	0.343556924
52	6	0.089937038	0.161637	0.353216601
52	6	0.070040864	0.178937541	0.343556924
52	6	0.088897537	0.188664027	0.353216601
52	6	0.069001363	0.205964568	0.343556924
52	6	0.087858036	0.215691054	0.353216601
52	6	0.067961862	0.232991595	0.343556924
52	6	0.086818535	0.242718081	0.353216601
52	6	0.066922361	0.260018622	0.343556924
52	6	0.085779034	0.269745108	0.353216601
52	6	0.06588286	0.287045649	0.343556924
52	6	0.084739533	0.296772135	0.353216601
52	6	0.064843359	0.314072676	0.343556924
52	6	0.083700032	0.323799162	0.353216601
52	6	0.063803858	0.341099703	0.343556924
52	6	0.082660531	0.350826189	0.353216601
52	6	0.062764357	0.36812673	0.343556924
52	6	0.08162103	0.377853216	0.353216601
52	6	0.061724856	0.395153757	0.343556924
52	6	0.080581529	0.404880243	0.353216601
52	6	0.060685354	0.422180784	0.343556924
52	6	0.079542028	0.43190727	0.353216601
52	6	0.059645853	0.449207811	0.343556924
52	6	0.078502527	0.458934297	0.353216601
52	6	0.058606352	0.476234838	0.343556924
52	6	0.077463026	0.485961324	0.353216601
52	6	0.057566851	0.503261865	0.343556924
52	6	0.076423525	0.512988351	0.353216601
52	6	0.05652735	0.530288892	0.343556924
52	6	0.075384024	0.540015378	0.353216601
52	6	0.055487849	0.557315919	0.343556924
52	6	0.074344523	0.567042405	0.353216601
52	6	0.054448348	0.584342946	0.343556924
52	6	0.073305022	0.594069432	0.353216601
52	6	0.053408847	0.611369973	0.343556924
52	6	0.072265521	0.621096459	0.353216601
52	6	0.052369346	0.638397	0.343556924
52	6	0.07122602	0.648123486	0.353216601
52	6	0.051329845	0.665424027	0.343556924
52	6	0.070186519	0.675150514	0.353216601
52	6	0.050290344	0.692451054	0.343556924
52	6	0.069147018	0.702177541	0.353216601
52	6	0.049250843	0.719478081	0.343556924
52	6	0.068107517	0.729204568	0.353216601
52	6	0.048211342	0.746505108	0.343556924
52	6	0.067068016	0.756231595	0.353216601
52	6	0.047171841	0.773532135	0.343556924
52	6	0.066028515	0.783258622	0.353216601
52	6	0.04613234	0.800559162	0.343556924
52	6	0.064989014	0.810285649	0.353216601
52	6	0.045092839	0.827586189	0.343556924
52	6	0.063949512	0.837312676	0.353216601
52	6	0.044053338	0.854613216	0.343556924
52	6	0.062910011	0.864339703	0.353216601
52	6	0.043013837	0.881640243	0.343556924
52	6	0.06187051	0.89136673	0.353216601
52	6	0.041974336	0.90866727	0.343556924
52	6	0.060831009	0.918393757	0.353216601
52	6	0.040934835	0.935694297	0.343556924
52	6	0.059791508	0.945420784	0.353216601
52	6	0.039895334	0.962721324	0.343556924
52	6	0.058752007	0.972447811	0.353216601
52	6	0.038855833	0.989748351	0.343556924
52	6	0.057712506	0.999474838	0.353216601
52	6	0.114739409	0.016775378	0.343556924
52	6	0.133596082	0.026501865	0.353216601
52	6	0.113699907	0.043802405	0.343556924
52	6	0.132556581	0.053528892	0.353216601
52	6	0.112660406	0.070829432	0.343556924
52	6	0.13151708	0.080555919	0.353216601
52	6	0.111620905	0.097856459	0.343556924
52	6	0.130477579	0.107582946	0.353216601
52	6	0.110581404	0.124883486	0.343556924
52	6	0.129438078	0.134609973	0.353216601
52	6	0.109541903	0.151910514	0.343556924
52	6	0.128398577	0.161637	0.353216601
52	6	0.108502402	0.178937541	0.343556924
52	6	0.127359076	0.188664027	0.353216601
52	6	0.107462901	0.205964568	0.343556924
52	6	0.126319575	0.215691054	0.353216601
52	6	0.1064234	0.232991595	0.343556924
52	6	0.125280074	0.242718081	0.353216601
52	6	0.105383899	0.260018622	0.343556924
52	6	0.124240573	0.269745108	0.353216601
52	6	0.104344398	0.287045649	0.343556924
52	6	0.123201072	0.296772135	0.353216601
52	6	0.103304897	0.314072676	0.343556924
52	6	0.122161571	0.323799162	0.353216601
52	6	0.102265396	0.341099703	0.343556924
52	6	0.12112207	0.350826189	0.353216601
52	6	0.101225895	0.36812673	0.343556924
52	6	0.120082569	0.377853216	0.353216601
52	6	0.100186394	0.395153757	0.343556924
52	6	0.119043068	0.404880243	0.353216601
52	6	0.099146893	0.422180784	0.343556924
52	6	0.118003567	0.43190727	0.353216601
52	6	0.098107392	0.449207811	0.343556924
52	6	0.116964065	0.458934297	0.353216601
52	6	0.097067891	0.476234838	0.343556924
52	6	0.115924564	0.485961324	0.353216601
52	6	0.09602839	0.503261865	0.343556924
52	6	0.114885063	0.512988351	0.353216601
52	6	0.094988889	0.530288892	0.343556924
52	6	0.113845562	0.540015378	0.353216601
52	6	0.093949388	0.557315919	0.343556924
52	6	0.112806061	0.567042405	0.353216601
52	6	0.092909887	0.584342946	0.343556924
52	6	0.11176656	0.594069432	0.353216601
52	6	0.091870386	0.611369973	0.343556924
52	6	0.110727059	0.621096459	0.353216601
52	6	0.090830885	0.638397	0.343556924
52	6	0.109687558	0.648123486	0.353216601
52	6	0.089791384	0.665424027	0.343556924
52	6	0.108648057	0.675150514	0.353216601
52	6	0.088751883	0.692451054	0.343556924
52	6	0.107608556	0.702177541	0.353216601
52	6	0.087712381	0.719478081	0.343556924
52	6	0.106569055	0.729204568	0.353216601
52	6	0.08667288	0.746505108	0.343556924
52	6	0.105529554	0.756231595	0.353216601
52	6	0.085633379	0.773532135	0.343556924
52	6	0.104490053	0.783258622	0.353216601
52	6	0.084593878	0.800559162	0.343556924
52	6	0.103450552	0.810285649	0.353216601
52	6	0.083554377	0.827586189	0.343556924
52	6	0.102411051	0.837312676	0.353216601
52	6	0.082514876	0.854613216	0.343556924
52	6	0.10137155	0.864339703	0.353216601
52	6	0.081475375	0.881640243	0.343556924
52	6	0.100332049	0.89136673	0.353216601
52	6	0.080435874	0.90866727	0.343556924
52	6	0.099292548	0.918393757	0.353216601
52	6	0.079396373	0.935694297	0.343556924
52	6	0.098253047	0.945420784	0.353216601
52	6	0.078356872	0.962721324	0.343556924
52	6	0.097213546	0.972447811	0.353216601
52	6	0.077317371	0.989748351	0.343556924
52	6	0.096174045	0.999474838	0.353216601
52	6	0.153200947	0.016775378	0.343556924
52	6	0.172057621	0.026501865	0.353216601
52	6	0.152161446	0.043802405	0.343556924
52	6	0.17101812	0.053528892	0.353216601
52	6	0.151121945	0.070829432	0.343556924
52	6	0.169978619	0.080555919	0.353216601
52	6	0.150082444	0.097856459	0.343556924
52	6	0.168939117	0.107582946	0.353216601
52	6	0.149042943	0.124883486	0.343556924
52	6	0.167899616	0.134609973	0.353216601
52	6	0.148003442	0.151910514	0.343556924
52	6	0.166860115	0.161637	0.353216601
52	6	0.146963941	0.178937541	0.343556924
52	6	0.165820614	0.188664027	0.353216601
52	6	0.14592444	0.205964568	0.343556924
52	6	0.164781113	0.215691054	0.353216601
52	6	0.144884939	0.232991595	0.343556924
52	6	0.163741612	0.242718081	0.353216601
52	6	0.143845438	0.260018622	0.343556924
52	6	0.162702111	0.269745108	0.353216601
52	6	0.142805937	0.287045649	0.343556924
52	6	0.16166261	0.296772135	0.353216601
52	6	0.141766436	0.314072676	0.343556924
52	6	0.160623109	0.323799162	0.353216601
52	6	0.140726935	0.341099703	0.343556924
52	6	0.159583608	0.350826189	0.353216601
52	6	0.139687433	0.36812673	0.343556924
52	6	0.158544107	0.377853216	0.353216601
52	6	0.138647932	0.395153757	0.343556924
52	6	0.157504606	0.404880243	0.353216601
52	6	0.137608431	0.422180784	0.343556924
52	6	0.156465105	0.43190727	0.353216601
52	6	0.13656893	0.449207811	0.343556924
52	6	0.155425604	0.458934297	0.353216601
52	6	0.135529429	0.476234838	0.343556924
52	6	0.154386103	0.485961324	0.353216601
52	6	0.134489928	0.503261865	0.343556924
52	6	0.153346602	0.512988351	0.353216601
52	6	0.133450427	0.530288892	0.343556924
52	6	0.152307101	0.540015378	0.353216601
52	6	0.132410926	0.557315919	0.343556924
52	6	0.1512676	0.567042405	0.353216601
52	6	0.131371425	0.584342946	0.343556924
52	6	0.150228099	0.594069432	0.353216601
52	6	0.130331924	0.611369973	0.343556924
52	6	0.149188598	0.621096459	0.353216601
52	6	0.129292423	0.638397	0.343556924
52	6	0.148149097	0.648123486	0.353216601
52	6	0.128252922	0.665424027	0.343556924
52	6	0.147109596	0.675150514	0.353216601
52	6	0.127213421	0.692451054	0.343556924
52	6	0.146070095	0.702177541	0.353216601
52	6	0.12617392	0.719478081	0.343556924
52	6	0.145030594	0.729204568	0.353216601
52	6	0.125134419	0.746505108	0.343556924
52	6	0.143991093	0.756231595	0.353216601
52	6	0.124094918	0.773532135	0.343556924
52	6	0.142951591	0.783258622	0.353216601
52	6	0.123055417	0.800559162	0.343556924
52	6	0.14191209	0.810285649	0.353216601
52	6	0.122015916	0.827586189	0.343556924
52	6	0.140872589	0.837312676	0.353216601
52	6	0.120976415	0.854613216	0.343556924
52	6	0.139833088	0.864339703	0.353216601
52	6	0.119936914	0.881640243	0.343556924
52	6	0.138793587	0.89136673	0.353216601
52	6	0.118897413	0.90866727	0.343556924
52	6	0.137754086	0.918393757	0.353216601
52	6	0.117857912	0.935694297	0.343556924
52	6	0.136714585	0.945420784	0.353216601
52	6	0.116818411	0.962721324	0.343556924
52	6	0.135675084	0.972447811	0.353216601
52	6	0.11577891	0.989748351	0.343556924
52	6	0.134635583	0.999474838	0.353216601
52	6	0.191662485	0.016775378	0.343556924
52	6	0.210519159	0.026501865	0.353216601
52	6	0.190622984	0.043802405	0.343556924
52	6	0.209479658	0.053528892	0.353216601
52	6	0.189583483	0.070829432	0.343556924
52	6	0.208440157	0.080555919	0.353216601
52	6	0.188543982	0.097856459	0.343556924
52	6	0.207400656	0.107582946	0.353216601
52	6	0.187504481	0.124883486	0.343556924
52	6	0.206361155	0.134609973	0.353216601
52	6	0.18646498	0.151910514	0.343556924
52	6	0.205321654	0.161637	0.353216601
52	6	0.185425479	0.178937541	0.343556924
52	6	0.204282153	0.188664027	0.353216601
52	6	0.184385978	0.205964568	0.343556924
52	6	0.203242652	0.215691054	0.353216601
52	6	0.183346477	0.232991595	0.343556924
52	6	0.202203151	0.242718081	0.353216601
52	6	0.182306976	0.260018622	0.343556924
52	6	0.20116365	0.269745108	0.353216601
52	6	0.181267475	0.287045649	0.343556924
52	6	0.200124149	0.296772135	0.353216601
52	6	0.180227974	0.314072676	0.343556924
52	6	0.199084648	0.323799162	0.353216601
52	6	0.179188473	0.341099703	0.343556924
52	6	0.198045147	0.350826189	0.353216601
52	6	0.178148972	0.36812673	0.343556924
52	6	0.197005646	0.377853216	0.353216601
52	6	0.177109471	0.395153757	0.343556924
52	6	0.195966144	0.404880243	0.353216601
52	6	0.17606997	0.422180784	0.343556924
52	6	0.194926643	0.43190727	0.353216601
52	6	0.175030469	0.449207811	0.343556924
52	6	0.193887142	0.458934297	0.353216601
52	6	0.173990968	0.476234838	0.343556924
52	6	0.192847641	0.485961324	0.353216601
52	6	0.172951467	0.503261865	0.343556924
52	6	0.19180814	0.512988351	0.353216601
52	6	0.171911966	0.530288892	0.343556924
52	6	0.190768639	0.540015378	0.353216601
52	6	0.170872465	0.557315919	0.343556924
52	6	0.189729138	0.567042405	0.353216601
52	6	0.169832964	0.584342946	0.343556924
52	6	0.188689637	0.594069432	0.353216601
52	6	0.168793463	0.611369973	0.343556924
52	6	0.187650136	0.621096459	0.353216601
52	6	0.167753962	0.638397	0.343556924
52	6	0.186610635	0.648123486	0.353216601
52	6	0.16671446	0.665424027	0.343556924
52	6	0.185571134	0.675150514	0.353216601
52	6	0.165674959	0.692451054	0.343556924
52	6	0.184531633	0.702177541	0.353216601
52	6	0.164635458	0.719478081	0.343556924
52	6	0.183492132	0.729204568	0.353216601
52	6	0.163595957	0.746505108	0.343556924
52	6	0.182452631	0.756231595	0.353216601
52	6	0.162556456	0.773532135	0.343556924
52	6	0.18141313	0.783258622	0.353216601
52	6	0.161516955	0.800559162	0.343556924
52	6	0.180373629	0.810285649	0.353216601
52	6	0.160477454	0.827586189	0.343556924
52	6	0.179334128	0.837312676	0.353216601
52	6	0.159437953	0.854613216	0.343556924
52	6	0.178294627	0.864339703	0.353216601
52	6	0.158398452	0.881640243	0.343556924
52	6	0.177255126	0.89136673	0.353216601
52	6	0.157358951	0.90866727	0.343556924
52	6	0.176215625	0.918393757	0.353216601
52	6	0.15631945	0.935694297	0.343556924
52	6	0.175176124	0.945420784	0.353216601
52	6	0.155279949	0.962721324	0.343556924
52	6	0.174136623	0.972447811	0.353216601
52	6	0.154240448	0.989748351	0.343556924
52	6	0.173097122	0.999474838	0.353216601
52	6	0.230124024	0.016775378	0.343556924
52	6	0.248980698	0.026501865	0.353216601
52	6	0.229084523	0.043802405	0.343556924
52	6	0.247941196	0.053528892	0.353216601
52	6	0.228045022	0.070829432	0.343556924
52	6	0.246901695	0.080555919	0.353216601
52	6	0.227005521	0.097856459	0.343556924
52	6	0.245862194	0.107582946	0.353216601
52	6	0.22596602	0.124883486	0.343556924
52	6	0.244822693	0.134609973	0.353216601
52	6	0.224926519	0.151910514	0.343556924
52	6	0.243783192	0.161637	0.353216601
52	6	0.223887018	0.178937541	0.343556924
52	6	0.242743691	0.188664027	0.353216601
52	6	0.222847517	0.205964568	0.343556924
52	6	0.24170419	0.215691054	0.353216601
52	6	0.221808016	0.232991595	0.343556924
52	6	0.240664689	0.242718081	0.353216601
52	6	0.220768515	0.260018622	0.343556924
52	6	0.239625188	0.269745108	0.353216601
52	6	0.219729014	0.287045649	0.343556924
52	6	0.238585687	0.296772135	0.353216601
52	6	0.218689512	0.314072676	0.343556924
52	6	0.237546186	0.323799162	0.353216601
52	6	0.217650011	0.341099703	0.343556924
52	6	0.236506685	0.350826189	0.353216601
52	6	0.21661051	0.36812673	0.343556924
52	6	0.235467184	0.377853216	0.353216601
52	6	0.215571009	0.395153757	0.343556924
52	6	0.234427683	0.404880243	0.353216601
52	6	0.214531508	0.422180784	0.343556924
52	6	0.233388182	0.43190727	0.353216601
52	6	0.213492007	0.449207811	0.343556924
52	6	0.232348681	0.458934297	0.353216601
52	6	0.212452506	0.476234838	0.343556924
52	6	0.23130918	0.485961324	0.353216601
52	6	0.211413005	0.503261865	0.343556924
52	6	0.230269679	0.512988351	0.353216601
52	6	0.210373504	0.530288892	0.343556924
52	6	0.229230178	0.540015378	0.353216601
52	6	0.209334003	0.557315919	0.343556924
52	6	0.228190677	0.567042405	0.353216601
52	6	0.208294502	0.584342946	0.343556924
52	6	0.227151176	0.594069432	0.353216601
52	6	0.207255001	0.611369973	0.343556924
52	6	0.226111675	0.621096459	0.353216601
52	6	0.2062155	0.638397	0.343556924
52	6	0.225072174	0.648123486	0.353216601
52	6	0.205175999	0.665424027	0.343556924
52	6	0.224032673	0.675150514	0.353216601
52	6	0.204136498	0.692451054	0.343556924
52	6	0.222993172	0.702177541	0.353216601
52	6	0.203096997	0.719478081	0.343556924
52	6	0.22195367	0.729204568	0.353216601
52	6	0.202057496	0.746505108	0.343556924
52	6	0.220914169	0.756231595	0.353216601
52	6	0.201017995	0.773532135	0.343556924
52	6	0.219874668	0.783258622	0.353216601
52	6	0.199978494	0.800559162	0.343556924
52	6	0.218835167	0.810285649	0.353216601
52	6	0.198938993	0.827586189	0.343556924
52	6	0.217795666	0.837312676	0.353216601
52	6	0.197899492	0.854613216	0.343556924
52	6	0.216756165	0.864339703	0.353216601
52	6	0.196859991	0.881640243	0.343556924
52	6	0.215716664	0.89136673	0.353216601
52	6	0.19582049	0.90866727	0.343556924
52	6	0.214677163	0.918393757	0.353216601
52	6	0.194780989	0.935694297	0.343556924
52	6	0.213637662	0.945420784	0.353216601
52	6	0.193741488	0.962721324	0.343556924
52	6	0.212598161	0.972447811	0.353216601
52	6	0.192701986	0.989748351	0.343556924
52	6	0.21155866	0.999474838	0.353216601
52	6	0.268585562	0.016775378	0.343556924
52	6	0.287442236	0.026501865	0.353216601
52	6	0.267546061	0.043802405	0.343556924
52	6	0.286402735	0.053528892	0.353216601
52	6	0.26650656	0.070829432	0.343556924
52	6	0.285363234	0.080555919	0.353216601
52	6	0.265467059	0.097856459	0.343556924
52	6	0.284323733	0.107582946	0.353216601
52	6	0.264427558	0.124883486	0.343556924
52	6	0.283284232	0.134609973	0.353216601
52	6	0.263388057	0.151910514	0.343556924
52	6	0.282244731	0.161637	0.353216601
52	6	0.262348556	0.178937541	0.343556924
52	6	0.28120523	0.188664027	0.353216601
52	6	0.261309055	0.205964568	0.343556924
52	6	0.280165729	0.215691054	0.353216601
52	6	0.260269554	0.232991595	0.343556924
52	6	0.279126228	0.242718081	0.353216601
52	6	0.259230053	0.260018622	0.343556924
52	6	0.278086727	0.269745108	0.353216601
52	6	0.258190552	0.287045649	0.343556924
52	6	0.277047226	0.296772135	0.353216601
52	6	0.257151051	0.314072676	0.343556924
52	6	0.276007725	0.323799162	0.353216601
52	6	0.25611155	0.341099703	0.343556924
52	6	0.274968223	0.350826189	0.353216601
52	6	0.255072049	0.36812673	0.343556924
52	6	0.273928722	0.377853216	0.353216601
52	6	0.254032548	0.395153757	0.343556924
52	6	0.272889221	0.404880243	0.353216601
52	6	0.252993047	0.422180784	0.343556924
52	6	0.27184972	0.43190727	0.353216601
52	6	0.251953546	0.449207811	0.343556924
52	6	0.270810219	0.458934297	0.353216601
52	6	0.250914045	0.476234838	0.343556924
52	6	0.269770718	0.485961324	0.353216601
52	6	0.249874544	0.503261865	0.343556924
52	6	0.268731217	0.512988351	0.353216601
52	6	0.248835043	0.530288892	0.343556924
52	6	0.267691716	0.540015378	0.353216601
52	6	0.247795542	0.557315919	0.343556924
52	6	0.266652215	0.567042405	0.353216601
52	6	0.246756041	0.584342946	0.343556924
52	6	0.265612714	0.594069432	0.353216601
52	6	0.24571654	0.611369973	0.343556924
52	6	0.264573213	0.621096459	0.353216601
52	6	0.244677038	0.638397	0.343556924
52	6	0.263533712	0.648123486	0.353216601
52	6	0.243637537	0.665424027	0.343556924
52	6	0.262494211	0.675150514	0.353216601
52	6	0.242598036	0.692451054	0.343556924
52	6	0.26145471	0.702177541	0.353216601
52	6	0.241558535	0.719478081	0.343556924
52	6	0.260415209	0.729204568	0.353216601
52	6	0.240519034	0.746505108	0.343556924
52	6	0.259375708	0.756231595	0.353216601
52	6	0.239479533	0.773532135	0.343556924
52	6	0.258336207	0.783258622	0.353216601
52	6	0.238440032	0.800559162	0.343556924
52	6	0.257296706	0.810285649	0.353216601
52	6	0.237400531	0.827586189	0.343556924
52	6	0.256257205	0.837312676	0.353216601
52	6	0.23636103	0.854613216	0.343556924
52	6	0.255217704	0.864339703	0.353216601
52	6	0.235321529	0.881640243	0.343556924
52	6	0.254178203	0.89136673	0.353216601
52	6	0.234282028	0.90866727	0.343556924
52	6	0.253138702	0.918393757	0.353216601
52	6	0.233242527	0.935694297	0.343556924
52	6	0.252099201	0.945420784	0.353216601
52	6	0.232203026	0.962721324	0.343556924
52	6	0.2510597	0.972447811	0.353216601
52	6	0.231163525	0.989748351	0.343556924
52	6	0.250020199	0.999474838	0.353216601
52	6	0.307047101	0.016775378	0.343556924
52	6	0.325903774	0.026501865	0.353216601
52	6	0.3060076	0.043802405	0.343556924
52	6	0.324864273	0.053528892	0.353216601
52	6	0.304968099	0.070829432	0.343556924
52	6	0.323824772	0.080555919	0.353216601
52	6	0.303928598	0.097856459	0.343556924
52	6	0.322785271	0.107582946	0.353216601
52	6	0.302889097	0.124883486	0.343556924
52	6	0.32174577	0.134609973	0.353216601
52	6	0.301849596	0.151910514	0.343556924
52	6	0.320706269	0.161637	0.353216601
52	6	0.300810095	0.178937541	0.343556924
52	6	0.319666768	0.188664027	0.353216601
52	6	0.299770594	0.205964568	0.343556924
52	6	0.318627267	0.215691054	0.353216601
52	6	0.298731093	0.232991595	0.343556924
52	6	0.317587766	0.242718081	0.353216601
52	6	0.297691591	0.260018622	0.343556924
52	6	0.316548265	0.269745108	0.353216601
52	6	0.29665209	0.287045649	0.343556924
52	6	0.315508764	0.296772135	0.353216601
52	6	0.295612589	0.314072676	0.343556924
52	6	0.314469263	0.323799162	0.353216601
52	6	0.294573088	0.341099703	0.343556924
52	6	0.313429762	0.350826189	0.353216601
52	6	0.293533587	0.36812673	0.343556924
52	6	0.312390261	0.377853216	0.353216601
52	6	0.292494086	0.395153757	0.343556924
52	6	0.31135076	0.404880243	0.353216601
52	6	0.291454585	0.422180784	0.343556924
52	6	0.310311259	0.43190727	0.353216601
52	6	0.290415084	0.449207811	0.343556924
52	6	0.309271758	0.458934297	0.353216601
52	6	0.289375583	0.476234838	0.343556924
52	6	0.308232257	0.485961324	0.353216601
52	6	0.288336082	0.503261865	0.343556924
52	6	0.307192756	0.512988351	0.353216601
52	6	0.287296581	0.530288892	0.343556924
52	6	0.306153255	0.540015378	0.353216601
52	6	0.28625708	0.557315919	0.343556924
52	6	0.305113754	0.567042405	0.353216601
52	6	0.285217579	0.584342946	0.343556924
52	6	0.304074253	0.594069432	0.353216601
52	6	0.284178078	0.611369973	0.343556924
52	6	0.303034752	0.621096459	0.353216601
52	6	0.283138577	0.638397	0.343556924
52	6	0.301995251	0.648123486	0.353216601
52	6	0.282099076	0.665424027	0.343556924
52	6	0.300955749	0.675150514	0.353216601
52	6	0.281059575	0.692451054	0.343556924
52	6	0.299916248	0.702177541	0.353216601
52	6	0.280020074	0.719478081	0.343556924
52	6	0.298876747	0.729204568	0.353216601
52	6	0.278980573	0.746505108	0.343556924
52	6	0.297837246	0.756231595	0.353216601
52	6	0.277941072	0.773532135	0.343556924
52	6	0.296797745	0.783258622	0.353216601
52	6	0.276901571	0.800559162	0.343556924
52	6	0.295758244	0.810285649	0.353216601
52	6	0.27586207	0.827586189	0.343556924
52	6	0.294718743	0.837312676	0.353216601
52	6	0.274822569	0.854613216	0.343556924
52	6	0.293679242	0.864339703	0.353216601
52	6	0.273783068	0.881640243	0.343556924
52	6	0.292639741	0.89136673	0.353216601
52	6	0.272743567	0.90866727	0.343556924
52	6	0.29160024	0.918393757	0.353216601
52	6	0.271704065	0.935694297	0.343556924
52	6	0.290560739	0.945420784	0.353216601
52	6	0.270664564	0.962721324	0.343556924
52	6	0.289521238	0.972447811	0.353216601
52	6	0.269625063	0.989748351	0.343556924
52	6	0.288481737	0.999474838	0.353216601
52	6	0.345508639	0.016775378	0.343556924
52	6	0.364365313	0.026501865	0.353216601
52	6	0.344469138	0.043802405	0.343556924
52	6	0.363325812	0.053528892	0.353216601
52	6	0.343429637	0.070829432	0.343556924
52	6	0.362286311	0.080555919	0.353216601
52	6	0.342390136	0.097856459	0.343556924
52	6	0.36124681	0.107582946	0.353216601
52	6	0.341350635	0.124883486	0.343556924
52	6	0.360207309	0.134609973	0.353216601
52	6	0.340311134	0.151910514	0.343556924
52	6	0.359167808	0.161637	0.353216601
52	6	0.339271633	0.178937541	0.343556924
52	6	0.358128307	0.188664027	0.353216601
52	6	0.338232132	0.205964568	0.343556924
52	6	0.357088806	0.215691054	0.353216601
52	6	0.337192631	0.232991595	0.343556924
52	6	0.356049305	0.242718081	0.353216601
52	6	0.33615313	0.260018622	0.343556924
52	6	0.355009804	0.269745108	0.353216601
52	6	0.335113629	0.287045649	0.343556924
52	6	0.353970302	0.296772135	0.353216601
52	6	0.334074128	0.314072676	0.343556924
52	6	0.352930801	0.323799162	0.353216601
52	6	0.333034627	0.341099703	0.343556924
52	6	0.3518913	0.350826189	0.353216601
52	6	0.331995126	0.36812673	0.343556924
52	6	0.350851799	0.377853216	0.353216601
52	6	0.330955625	0.395153757	0.343556924
52	6	0.349812298	0.404880243	0.353216601
52	6	0.329916124	0.422180784	0.343556924
52	6	0.348772797	0.43190727	0.353216601
52	6	0.328876623	0.449207811	0.343556924
52	6	0.347733296	0.458934297	0.353216601
52	6	0.327837122	0.476234838	0.343556924
52	6	0.346693795	0.485961324	0.353216601
52	6	0.326797621	0.503261865	0.343556924
52	6	0.345654294	0.512988351	0.353216601
52	6	0.32575812	0.530288892	0.343556924
52	6	0.344614793	0.540015378	0.353216601
52	6	0.324718619	0.557315919	0.343556924
52	6	0.343575292	0.567042405	0.353216601
52	6	0.323679117	0.584342946	0.343556924
52	6	0.342535791	0.594069432	0.353216601
52	6	0.322639616	0.611369973	0.343556924
52	6	0.34149629	0.621096459	0.353216601
52	6	0.321600115	0.638397	0.343556924
52	6	0.340456789	0.648123486	0.353216601
52	6	0.320560614	0.665424027	0.343556924
52	6	0.339417288	0.675150514	0.353216601
52	6	0.319521113	0.692451054	0.343556924
52	6	0.338377787	0.702177541	0.353216601
52	6	0.318481612	0.719478081	0.343556924
52	6	0.337338286	0.729204568	0.353216601
52	6	0.317442111	0.746505108	0.343556924
52	6	0.336298785	0.756231595	0.353216601
52	6	0.31640261	0.773532135	0.343556924
52	6	0.335259284	0.783258622	0.353216601
52	6	0.315363109	0.800559162	0.343556924
52	6	0.334219783	0.810285649	0.353216601
52	6	0.314323608	0.827586189	0.343556924
52	6	0.333180282	0.837312676	0.353216601
52	6	0.313284107	0.854613216	0.343556924
52	6	0.332140781	0.864339703	0.353216601
52	6	0.312244606	0.881640243	0.343556924
52	6	0.33110128	0.89136673	0.353216601
52	6	0.311205105	0.90866727	0.343556924
52	6	0.330061779	0.918393757	0.353216601
52	6	0.310165604	0.935694297	0.343556924
52	6	0.329022278	0.945420784	0.353216601
52	6	0.309126103	0.962721324	0.343556924
52	6	0.327982777	0.972447811	0.353216601
52	6	0.308086602	0.989748351	0.343556924
52	6	0.326943275	0.999474838	0.353216601
52	6	0.383970178	0.016775378	0.343556924
52	6	0.402826851	0.026501865	0.353216601
52	6	0.382930677	0.043802405	0.343556924
52	6	0.40178735	0.053528892	0.353216601
52	6	0.381891176	0.070829432	0.343556924
52	6	0.400747849	0.080555919	0.353216601
52	6	0.380851675	0.097856459	0.343556924
52	6	0.399708348	0.107582946	0.353216601
52	6	0.379812174	0.124883486	0.343556924
52	6	0.398668847	0.134609973	0.353216601
52	6	0.378772673	0.151910514	0.343556924
52	6	0.397629346	0.161637	0.353216601
52	6	0.377733172	0.178937541	0.343556924
52	6	0.396589845	0.188664027	0.353216601
52	6	0.37669367	0.205964568	0.343556924
52	6	0.395550344	0.215691054	0.353216601
52	6	0.375654169	0.232991595	0.343556924
52	6	0.394510843	0.242718081	0.353216601
52	6	0.374614668	0.260018622	0.343556924
52	6	0.393471342	0.269745108	0.353216601
52	6	0.373575167	0.287045649	0.343556924
52	6	0.392431841	0.296772135	0.353216601
52	6	0.372535666	0.314072676	0.343556924
52	6	0.39139234	0.323799162	0.353216601
52	6	0.371496165	0.341099703	0.343556924
52	6	0.390352839	0.350826189	0.353216601
52	6	0.370456664	0.36812673	0.343556924
52	6	0.389313338	0.377853216	0.353216601
52	6	0.369417163	0.395153757	0.343556924
52	6	0.388273837	0.404880243	0.353216601
52	6	0.368377662	0.422180784	0.343556924
52	6	0.387234336	0.43190727	0.353216601
52	6	0.367338161	0.449207811	0.343556924
52	6	0.386194835	0.458934297	0.353216601
52	6	0.36629866	0.476234838	0.343556924
52	6	0.385155334	0.485961324	0.353216601
52	6	0.365259159	0.503261865	0.343556924
52	6	0.384115833	0.512988351	0.353216601
52	6	0.364219658	0.530288892	0.343556924
52	6	0.383076332	0.540015378	0.353216601
52	6	0.363180157	0.557315919	0.343556924
52	6	0.382036831	0.567042405	0.353216601
52	6	0.362140656	0.584342946	0.343556924
52	6	0.38099733	0.594069432	0.353216601
52	6	0.361101155	0.611369973	0.343556924
52	6	0.379957828	0.621096459	0.353216601
52	6	0.360061654	0.638397	0.343556924
52	6	0.378918327	0.648123486	0.353216601
52	6	0.359022153	0.665424027	0.343556924
52	6	0.377878826	0.675150514	0.353216601
52	6	0.357982652	0.692451054	0.343556924
52	6	0.376839325	0.702177541	0.353216601
52	6	0.356943151	0.719478081	0.343556924
52	6	0.375799824	0.729204568	0.353216601
52	6	0.35590365	0.746505108	0.343556924
52	6	0.374760323	0.756231595	0.353216601
52	6	0.354864149	0.773532135	0.343556924
52	6	0.373720822	0.783258622	0.353216601
52	6	0.353824648	0.800559162	0.343556924
52	6	0.372681321	0.810285649	0.353216601
52	6	0.352785147	0.827586189	0.343556924
52	6	0.37164182	0.837312676	0.353216601
52	6	0.351745646	0.854613216	0.343556924
52	6	0.370602319	0.864339703	0.353216601
52	6	0.350706144	0.881640243	0.343556924
52	6	0.369562818	0.89136673	0.353216601
52	6	0.349666643	0.90866727	0.343556924
52	6	0.368523317	0.918393757	0.353216601
52	6	0.348627142	0.935694297	0.343556924
52	6	0.367483816	0.945420784	0.353216601
52	6	0.347587641	0.962721324	0.343556924
52	6	0.366444315	0.972447811	0.353216601
52	6	0.34654814	0.989748351	0.343556924
52	6	0.365404814	0.999474838	0.353216601
52	6	0.422431716	0.016775378	0.343556924
52	6	0.44128839	0.026501865	0.353216601
52	6	0.421392215	0.043802405	0.343556924
52	6	0.440248889	0.053528892	0.353216601
52	6	0.420352714	0.070829432	0.343556924
52	6	0.439209388	0.080555919	0.353216601
52	6	0.419313213	0.097856459	0.343556924
52	6	0.438169887	0.107582946	0.353216601
52	6	0.418273712	0.124883486	0.343556924
52	6	0.437130386	0.134609973	0.353216601
52	6	0.417234211	0.151910514	0.343556924
52	6	0.436090885	0.161637	0.353216601
52	6	0.41619471	0.178937541	0.343556924
52	6	0.435051384	0.188664027	0.353216601
52	6	0.415155209	0.205964568	0.343556924
52	6	0.434011883	0.215691054	0.353216601
52	6	0.414115708	0.232991595	0.343556924
52	6	0.432972381	0.242718081	0.353216601
52	6	0.413076207	0.260018622	0.343556924
52	6	0.43193288	0.269745108	0.353216601
52	6	0.412036706	0.287045649	0.343556924
52	6	0.430893379	0.296772135	0.353216601
52	6	0.410997205	0.314072676	0.343556924
52	6	0.429853878	0.323799162	0.353216601
52	6	0.409957704	0.341099703	0.343556924
52	6	0.428814377	0.350826189	0.353216601
52	6	0.408918203	0.36812673	0.343556924
52	6	0.427774876	0.377853216	0.353216601
52	6	0.407878702	0.395153757	0.343556924
52	6	0.426735375	0.404880243	0.353216601
52	6	0.406839201	0.422180784	0.343556924
52	6	0.425695874	0.43190727	0.353216601
52	6	0.4057997	0.449207811	0.343556924
52	6	0.424656373	0.458934297	0.353216601
52	6	0.404760199	0.476234838	0.343556924
52	6	0.423616872	0.485961324	0.353216601
52	6	0.403720698	0.503261865	0.343556924
52	6	0.422577371	0.512988351	0.353216601
52	6	0.402681196	0.530288892	0.343556924
52	6	0.42153787	0.540015378	0.353216601
52	6	0.401641695	0.557315919	0.343556924
52	6	0.420498369	0.567042405	0.353216601
52	6	0.400602194	0.584342946	0.343556924
52	6	0.419458868	0.594069432	0.353216601
52	6	0.399562693	0.611369973	0.343556924
52	6	0.418419367	0.621096459	0.353216601
52	6	0.398523192	0.638397	0.343556924
52	6	0.417379866	0.648123486	0.353216601
52	6	0.397483691	0.665424027	0.343556924
52	6	0.416340365	0.675150514	0.353216601
52	6	0.39644419	0.692451054	0.343556924
52	6	0.415300864	0.702177541	0.353216601
52	6	0.395404689	0.719478081	0.343556924
52	6	0.414261363	0.729204568	0.353216601
52	6	0.394365188	0.746505108	0.343556924
52	6	0.413221862	0.756231595	0.353216601
52	6	0.393325687	0.773532135	0.343556924
52	6	0.412182361	0.783258622	0.353216601
52	6	0.392286186	0.800559162	0.343556924
52	6	0.41114286	0.810285649	0.353216601
52	6	0.391246685	0.827586189	0.343556924
52	6	0.410103359	0.837312676	0.353216601
52	6	0.390207184	0.854613216	0.343556924
52	6	0.409063858	0.864339703	0.353216601
52	6	0.389167683	0.881640243	0.343556924
52	6	0.408024357	0.89136673	0.353216601
52	6	0.388128182	0.90866727	0.343556924
52	6	0.406984856	0.918393757	0.353216601
52	6	0.387088681	0.935694297	0.343556924
52	6	0.405945354	0.945420784	0.353216601
52	6	0.38604918	0.962721324	0.343556924
52	6	0.404905853	0.972447811	0.353216601
52	6	0.385009679	0.989748351	0.343556924
52	6	0.403866352	0.999474838	0.353216601
52	6	0.460893255	0.016775378	0.343556924
52	6	0.479749928	0.026501865	0.353216601
52	6	0.459853754	0.043802405	0.343556924
52	6	0.478710427	0.053528892	0.353216601
52	6	0.458814253	0.070829432	0.343556924
52	6	0.477670926	0.080555919	0.353216601
52	6	0.457774752	0.097856459	0.343556924
52	6	0.476631425	0.107582946	0.353216601
52	6	0.456735251	0.124883486	0.343556924
52	6	0.475591924	0.134609973	0.353216601
52	6	0.455695749	0.151910514	0.343556924
52	6	0.474552423	0.161637	0.353216601
52	6	0.454656248	0.178937541	0.343556924
52	6	0.473512922	0.188664027	0.353216601
52	6	0.453616747	0.205964568	0.343556924
52	6	0.472473421	0.215691054	0.353216601
52	6	0.452577246	0.232991595	0.343556924
52	6	0.47143392	0.242718081	0.353216601
52	6	0.451537745	0.260018622	0.343556924
52	6	0.470394419	0.269745108	0.353216601
52	6	0.450498244	0.287045649	0.343556924
52	6	0.469354918	0.296772135	0.353216601
52	6	0.449458743	0.314072676	0.343556924
52	6	0.468315417	0.323799162	0.353216601
52	6	0.448419242	0.341099703	0.343556924
52	6	0.467275916	0.350826189	0.353216601
52	6	0.447379741	0.36812673	0.343556924
52	6	0.466236415	0.377853216	0.353216601
52	6	0.44634024	0.395153757	0.343556924
52	6	0.465196914	0.404880243	0.353216601
52	6	0.445300739	0.422180784	0.343556924
52	6	0.464157413	0.43190727	0.353216601
52	6	0.444261238	0.449207811	0.343556924
52	6	0.463117912	0.458934297	0.353216601
52	6	0.443221737	0.476234838	0.343556924
52	6	0.462078411	0.485961324	0.353216601
52	6	0.442182236	0.503261865	0.343556924
52	6	0.46103891	0.512988351	0.353216601
52	6	0.441142735	0.530288892	0.343556924
52	6	0.459999409	0.540015378	0.353216601
52	6	0.440103234	0.557315919	0.343556924
52	6	0.458959907	0.567042405	0.353216601
52	6	0.439063733	0.584342946	0.343556924
52	6	0.457920406	0.594069432	0.353216601
52	6	0.438024232	0.611369973	0.343556924
52	6	0.456880905	0.621096459	0.353216601
52	6	0.436984731	0.638397	0.343556924
52	6	0.455841404	0.648123486	0.353216601
52	6	0.43594523	0.665424027	0.343556924
52	6	0.454801903	0.675150514	0.353216601
52	6	0.434905729	0.692451054	0.343556924
52	6	0.453762402	0.702177541	0.353216601
52	6	0.433866228	0.719478081	0.343556924
52	6	0.452722901	0.729204568	0.353216601
52	6	0.432826727	0.746505108	0.343556924
52	6	0.4516834	0.756231595	0.353216601
52	6	0.431787226	0.773532135	0.343556924
52	6	0.450643899	0.783258622	0.353216601
52	6	0.430747725	0.800559162	0.343556924
52	6	0.449604398	0.810285649	0.353216601
52	6	0.429708223	0.827586189	0.343556924
52	6	0.448564897	0.837312676	0.353216601
52	6	0.428668722	0.854613216	0.343556924
52	6	0.447525396	0.864339703	0.353216601
52	6	0.427629221	0.881640243	0.343556924
52	6	0.446485895	0.89136673	0.353216601
52	6	0.42658972	0.90866727	0.343556924
52	6	0.445446394	0.918393757	0.353216601
52	6	0.425550219	0.935694297	0.343556924
52	6	0.444406893	0.945420784	0.353216601
52	6	0.424510718	0.962721324	0.343556924
52	6	0.443367392	0.972447811	0.353216601
52	6	0.423471217	0.989748351	0.343556924
52	6	0.442327891	0.999474838	0.353216601
52	6	0.499354793	0.016775378	0.343556924
52	6	0.518211467	0.026501865	0.353216601
52	6	0.498315292	0.043802405	0.343556924
52	6	0.517171966	0.053528892	0.353216601
52	6	0.497275791	0.070829432	0.343556924
52	6	0.516132465	0.080555919	0.353216601
52	6	0.49623629	0.097856459	0.343556924
52	6	0.515092964	0.107582946	0.353216601
52	6	0.495196789	0.124883486	0.343556924
52	6	0.514053463	0.134609973	0.353216601
52	6	0.494157288	0.151910514	0.343556924
52	6	0.513013962	0.161637	0.353216601
52	6	0.493117787	0.178937541	0.343556924
52	6	0.51197446	0.188664027	0.353216601
52	6	0.492078286	0.205964568	0.343556924
52	6	0.510934959	0.215691054	0.353216601
52	6	0.491038785	0.232991595	0.343556924
52	6	0.509895458	0.242718081	0.353216601
52	6	0.489999284	0.260018622	0.343556924
52	6	0.508855957	0.269745108	0.353216601
52	6	0.488959783	0.287045649	0.343556924
52	6	0.507816456	0.296772135	0.353216601
52	6	0.487920282	0.314072676	0.343556924
52	6	0.506776955	0.323799162	0.353216601
52	6	0.486880781	0.341099703	0.343556924
52	6	0.505737454	0.350826189	0.353216601
52	6	0.48584128	0.36812673	0.343556924
52	6	0.504697953	0.377853216	0.353216601
52	6	0.484801779	0.395153757	0.343556924
52	6	0.503658452	0.404880243	0.353216601
52	6	0.483762278	0.422180784	0.343556924
52	6	0.502618951	0.43190727	0.353216601
52	6	0.482722777	0.449207811	0.343556924
52	6	0.50157945	0.458934297	0.353216601
52	6	0.481683275	0.476234838	0.343556924
52	6	0.500539949	0.485961324	0.353216601
52	6	0.480643774	0.503261865	0.343556924
52	6	0.499500448	0.512988351	0.353216601
52	6	0.479604273	0.530288892	0.343556924
52	6	0.498460947	0.540015378	0.353216601
52	6	0.478564772	0.557315919	0.343556924
52	6	0.497421446	0.567042405	0.353216601
52	6	0.477525271	0.584342946	0.343556924
52	6	0.496381945	0.594069432	0.353216601
52	6	0.47648577	0.611369973	0.343556924
52	6	0.495342444	0.621096459	0.353216601
52	6	0.475446269	0.638397	0.343556924
52	6	0.494302943	0.648123486	0.353216601
52	6	0.474406768	0.665424027	0.343556924
52	6	0.493263442	0.675150514	0.353216601
52	6	0.473367267	0.692451054	0.343556924
52	6	0.492223941	0.702177541	0.353216601
52	6	0.472327766	0.719478081	0.343556924
52	6	0.49118444	0.729204568	0.353216601
52	6	0.471288265	0.746505108	0.343556924
52	6	0.490144939	0.756231595	0.353216601
52	6	0.470248764	0.773532135	0.343556924
52	6	0.489105438	0.783258622	0.353216601
52	6	0.469209263	0.800559162	0.343556924
52	6	0.488065937	0.810285649	0.353216601
52	6	0.468169762	0.827586189	0.343556924
52	6	0.487026436	0.837312676	0.353216601
52	6	0.467130261	0.854613216	0.343556924
52	6	0.485986935	0.864339703	0.353216601
52	6	0.46609076	0.881640243	0.343556924
52	6	0.484947433	0.89136673	0.353216601
52	6	0.465051259	0.90866727	0.343556924
52	6	0.483907932	0.918393757	0.353216601
52	6	0.464011758	0.935694297	0.343556924
52	6	0.482868431	0.945420784	0.353216601
52	6	0.462972257	0.962721324	0.343556924
52	6	0.48182893	0.972447811	0.353216601
52	6	0.461932756	0.989748351	0.343556924
52	6	0.480789429	0.999474838	0.353216601
52	6	0.537816332	0.016775378	0.343556924
52	6	0.556673005	0.026501865	0.353216601
52	6	0.536776831	0.043802405	0.343556924
52	6	0.555633504	0.053528892	0.353216601
52	6	0.53573733	0.070829432	0.343556924
52	6	0.554594003	0.080555919	0.353216601
52	6	0.534697828	0.097856459	0.343556924
52	6	0.553554502	0.107582946	0.353216601
52	6	0.533658327	0.124883486	0.343556924
52	6	0.552515001	0.134609973	0.353216601
52	6	0.532618826	0.151910514	0.343556924
52	6	0.5514755	0.161637	0.353216601
52	6	0.531579325	0.178937541	0.343556924
52	6	0.550435999	0.188664027	0.353216601
52	6	0.530539824	0.205964568	0.343556924
52	6	0.549396498	0.215691054	0.353216601
52	6	0.529500323	0.232991595	0.343556924
52	6	0.548356997	0.242718081	0.353216601
52	6	0.528460822	0.260018622	0.343556924
52	6	0.547317496	0.269745108	0.353216601
52	6	0.527421321	0.287045649	0.343556924
52	6	0.546277995	0.296772135	0.353216601
52	6	0.52638182	0.314072676	0.343556924
52	6	0.545238494	0.323799162	0.353216601
52	6	0.525342319	0.341099703	0.343556924
52	6	0.544198993	0.350826189	0.353216601
52	6	0.524302818	0.36812673	0.343556924
52	6	0.543159492	0.377853216	0.353216601
52	6	0.523263317	0.395153757	0.343556924
52	6	0.542119991	0.404880243	0.353216601
52	6	0.522223816	0.422180784	0.343556924
52	6	0.54108049	0.43190727	0.353216601
52	6	0.521184315	0.449207811	0.343556924
52	6	0.540040989	0.458934297	0.353216601
52	6	0.520144814	0.476234838	0.343556924
52	6	0.539001488	0.485961324	0.353216601
52	6	0.519105313	0.503261865	0.343556924
52	6	0.537961986	0.512988351	0.353216601
52	6	0.518065812	0.530288892	0.343556924
52	6	0.536922485	0.540015378	0.353216601
52	6	0.517026311	0.557315919	0.343556924
52	6	0.535882984	0.567042405	0.353216601
52	6	0.51598681	0.584342946	0.343556924
52	6	0.534843483	0.594069432	0.353216601
52	6	0.514947309	0.611369973	0.343556924
52	6	0.533803982	0.621096459	0.353216601
52	6	0.513907808	0.638397	0.343556924
52	6	0.532764481	0.648123486	0.353216601
52	6	0.512868307	0.665424027	0.343556924
52	6	0.53172498	0.675150514	0.353216601
52	6	0.511828806	0.692451054	0.343556924
52	6	0.530685479	0.702177541	0.353216601
52	6	0.510789305	0.719478081	0.343556924
52	6	0.529645978	0.729204568	0.353216601
52	6	0.509749804	0.746505108	0.343556924
52	6	0.528606477	0.756231595	0.353216601
52	6	0.508710302	0.773532135	0.343556924
52	6	0.527566976	0.783258622	0.353216601
52	6	0.507670801	0.800559162	0.343556924
52	6	0.526527475	0.810285649	0.353216601
52	6	0.5066313	0.827586189	0.343556924
52	6	0.525487974	0.837312676	0.353216601
52	6	0.505591799	0.854613216	0.343556924
52	6	0.524448473	0.864339703	0.353216601
52	6	0.504552298	0.881640243	0.343556924
52	6	0.523408972	0.89136673	0.353216601
52	6	0.503512797	0.90866727	0.343556924
52	6	0.522369471	0.918393757	0.353216601
52	6	0.502473296	0.935694297	0.343556924
52	6	0.52132997	0.945420784	0.353216601
52	6	0.501433795	0.962721324	0.343556924
52	6	0.520290469	0.972447811	0.353216601
52	6	0.500394294	0.989748351	0.343556924
52	6	0.519250968	0.999474838	0.353216601
52	6	0.57627787	0.016775378	0.343556924
52	6	0.595134544	0.026501865	0.353216601
52	6	0.575238369	0.043802405	0.343556924
52	6	0.594095043	0.053528892	0.353216601
52	6	0.574198868	0.070829432	0.343556924
52	6	0.593055542	0.080555919	0.353216601
52	6	0.573159367	0.097856459	0.343556924
52	6	0.592016041	0.107582946	0.353216601
52	6	0.572119866	0.124883486	0.343556924
52	6	0.59097654	0.134609973	0.353216601
52	6	0.571080365	0.151910514	0.343556924
52	6	0.589937038	0.161637	0.353216601
52	6	0.570040864	0.178937541	0.343556924
52	6	0.588897537	0.188664027	0.353216601
52	6	0.569001363	0.205964568	0.343556924
52	6	0.587858036	0.215691054	0.353216601
52	6	0.567961862	0.232991595	0.343556924
52	6	0.586818535	0.242718081	0.353216601
52	6	0.566922361	0.260018622	0.343556924
52	6	0.585779034	0.269745108	0.353216601
52	6	0.56588286	0.287045649	0.343556924
52	6	0.584739533	0.296772135	0.353216601
52	6	0.564843359	0.314072676	0.343556924
52	6	0.583700032	0.323799162	0.353216601
52	6	0.563803858	0.341099703	0.343556924
52	6	0.582660531	0.350826189	0.353216601
52	6	0.562764357	0.36812673	0.343556924
52	6	0.58162103	0.377853216	0.353216601
52	6	0.561724856	0.395153757	0.343556924
52	6	0.580581529	0.404880243	0.353216601
52	6	0.560685354	0.422180784	0.343556924
52	6	0.579542028	0.43190727	0.353216601
52	6	0.559645853	0.449207811	0.343556924
52	6	0.578502527	0.458934297	0.353216601
52	6	0.558606352	0.476234838	0.343556924
52	6	0.577463026	0.485961324	0.353216601
52	6	0.557566851	0.503261865	0.343556924
52	6	0.576423525	0.512988351	0.353216601
52	6	0.55652735	0.530288892	0.343556924
52	6	0.575384024	0.540015378	0.353216601
52	6	0.555487849	0.557315919	0.343556924
52	6	0.574344523	0.567042405	0.353216601
52	6	0.554448348	0.584342946	0.343556924
52	6	0.573305022	0.594069432	0.353216601
52	6	0.553408847	0.611369973	0.343556924
52	6	0.572265521	0.621096459	0.353216601
52	6	0.552369346	0.638397	0.343556924
52	6	0.57122602	0.648123486	0.353216601
52	6	0.551329845	0.665424027	0.343556924
52	6	0.570186519	0.675150514	0.353216601
52	6	0.550290344	0.692451054	0.343556924
52	6	0.569147018	0.702177541	0.353216601
52	6	0.549250843	0.719478081	0.343556924
52	6	0.568107517	0.729204568	0.353216601
52	6	0.548211342	0.746505108	0.343556924
52	6	0.567068016	0.756231595	0.353216601
52	6	0.547171841	0.773532135	0.343556924
52	6	0.566028515	0.783258622	0.353216601
52	6	0.54613234	0.800559162	0.343556924
52	6	0.564989014	0.810285649	0.353216601
52	6	0.545092839	0.827586189	0.343556924
52	6	0.563949512	0.837312676	0.353216601
52	6	0.544053338	0.854613216	0.343556924
52	6	0.562910011	0.864339703	0.353216601
52	6	0.543013837	0.881640243	0.343556924
52	6	0.56187051	0.89136673	0.353216601
52	6	0.541974336	0.90866727	0.343556924
52	6	0.560831009	0.918393757	0.353216601
52	6	0.540934835	0.935694297	0.343556924
52	6	0.559791508	0.945420784	0.353216601
52	6	0.539895334	0.962721324	0.343556924
52	6	0.558752007	0.972447811	0.353216601
52	6	0.538855833	0.989748351	0.343556924
52	6	0.557712506	0.999474838	0.353216601
52	6	0.614739409	0.016775378	0.343556924
52	6	0.633596082	0.026501865	0.353216601
52	6	0.613699907	0.043802405	0.343556924
52	6	0.632556581	0.053528892	0.353216601
52	6	0.612660406	0.070829432	0.343556924
52	6	0.63151708	0.080555919	0.353216601
52	6	0.611620905	0.097856459	0.343556924
52	6	0.630477579	0.107582946	0.353216601
52	6	0.610581404	0.124883486	0.343556924
52	6	0.629438078	0.134609973	0.353216601
52	6	0.609541903	0.151910514	0.343556924
52	6	0.628398577	0.161637	0.353216601
52	6	0.608502402	0.178937541	0.343556924
52	6	0.627359076	0.188664027	0.353216601
52	6	0.607462901	0.205964568	0.343556924
52	6	0.626319575	0.215691054	0.353216601
52	6	0.6064234	0.232991595	0.343556924
52	6	0.625280074	0.242718081	0.353216601
52	6	0.605383899	0.260018622	0.343556924
52	6	0.624240573	0.269745108	0.353216601
52	6	0.604344398	0.287045649	0.343556924
52	6	0.623201072	0.296772135	0.353216601
52	6	0.603304897	0.314072676	0.343556924
52	6	0.622161571	0.323799162	0.353216601
52	6	0.602265396	0.341099703	0.343556924
52	6	0.62112207	0.350826189	0.353216601
52	6	0.601225895	0.36812673	0.343556924
52	6	0.620082569	0.377853216	0.353216601
52	6	0.600186394	0.395153757	0.343556924
52	6	0.619043068	0.404880243	0.353216601
52	6	0.599146893	0.422180784	0.343556924
52	6	0.618003567	0.43190727	0.353216601
52	6	0.598107392	0.449207811	0.343556924
52	6	0.616964065	0.458934297	0.353216601
52	6	0.597067891	0.476234838	0.343556924
52	6	0.615924564	0.485961324	0.353216601
52	6	0.59602839	0.503261865	0.343556924
52	6	0.614885063	0.512988351	0.353216601
52	6	0.594988889	0.530288892	0.343556924
52	6	0.613845562	0.540015378	0.353216601
52	6	0.593949388	0.557315919	0.343556924
52	6	0.612806061	0.567042405	0.353216601
52	6	0.592909887	0.584342946	0.343556924
52	6	0.61176656	0.594069432	0.353216601
52	6	0.591870386	0.611369973	0.343556924
52	6	0.610727059	0.621096459	0.353216601
52	6	0.590830885	0.638397	0.343556924
52	6	0.609687558	0.648123486	0.353216601
52	6	0.589791384	0.665424027	0.343556924
52	6	0.608648057	0.675150514	0.353216601
52	6	0.588751883	0.692451054	0.343556924
52	6	0.607608556	0.702177541	0.353216601
52	6	0.587712381	0.719478081	0.343556924
52	6	0.606569055	0.729204568	0.353216601
52	6	0.58667288	0.746505108	0.343556924
52	6	0.605529554	0.756231595	0.353216601
52	6	0.585633379	0.773532135	0.343556924
52	6	0.604490053	0.783258622	0.353216601
52	6	0.584593878	0.800559162	0.343556924
52	6	0.603450552	0.810285649	0.353216601
52	6	0.583554377	0.827586189	0.343556924
52	6	0.602411051	0.837312676	0.353216601
52	6	0.582514876	0.854613216	0.343556924
52	6	0.60137155	0.864339703	0.353216601
52	6	0.581475375	0.881640243	0.343556924
52	6	0.600332049	0.89136673	0.353216601
52	6	0.580435874	0.90866727	0.343556924
52	6	0.599292548	0.918393757	0.353216601
52	6	0.579396373	0.935694297	0.343556924
52	6	0.598253047	0.945420784	0.353216601
52	6	0.578356872	0.962721324	0.343556924
52	6	0.597213546	0.972447811	0.353216601
52	6	0.577317371	0.989748351	0.343556924
52	6	0.596174045	0.999474838	0.353216601
52	6	0.653200947	0.016775378	0.343556924
52	6	0.672057621	0.026501865	0.353216601
52	6	0.652161446	0.043802405	0.343556924
52	6	0.67101812	0.053528892	0.353216601
52	6	0.651121945	0.070829432	0.343556924
52	6	0.669978619	0.080555919	0.353216601
52	6	0.650082444	0.097856459	0.343556924
52	6	0.668939117	0.107582946	0.353216601
52	6	0.649042943	0.124883486	0.343556924
52	6	0.667899616	0.134609973	0.353216601
52	6	0.648003442	0.151910514	0.343556924
52	6	0.666860115	0.161637	0.353216601
52	6	0.646963941	0.178937541	0.343556924
52	6	0.665820614	0.188664027	0.353216601
52	6	0.64592444	0.205964568	0.343556924
52	6	0.664781113	0.215691054	0.353216601
52	6	0.644884939	0.232991595	0.343556924
52	6	0.663741612	0.242718081	0.353216601
52	6	0.643845438	0.260018622	0.343556924
52	6	0.662702111	0.269745108	0.353216601
52	6	0.642805937	0.287045649	0.343556924
52	6	0.66166261	0.296772135	0.353216601
52	6	0.641766436	0.314072676	0.343556924
52	6	0.660623109	0.323799162	0.353216601
52	6	0.640726935	0.341099703	0.343556924
52	6	0.659583608	0.350826189	0.353216601
52	6	0.639687433	0.36812673	0.343556924
52	6	0.658544107	0.377853216	0.353216601
52	6	0.638647932	0.395153757	0.343556924
52	6	0.657504606	0.404880243	0.353216601
52	6	0.637608431	0.422180784	0.343556924
52	6	0.656465105	0.43190727	0.353216601
52	6	0.63656893	0.449207811	0.343556924
52	6	0.655425604	0.458934297	0.353216601
52	6	0.635529429	0.476234838	0.343556924
52	6	0.654386103	0.485961324	0.353216601
52	6	0.634489928	0.503261865	0.343556924
52	6	0.653346602	0.512988351	0.353216601
52	6	0.633450427	0.530288892	0.343556924
52	6	0.652307101	0.540015378	0.353216601
52	6	0.632410926	0.557315919	0.343556924
52	6	0.6512676	0.567042405	0.353216601
52	6	0.631371425	0.584342946	0.343556924
52	6	0.650228099	0.594069432	0.353216601
52	6	0.630331924	0.611369973	0.343556924
52	6	0.649188598	0.621096459	0.353216601
52	6	0.629292423	0.638397	0.343556924
52	6	0.648149097	0.648123486	0.353216601
52	6	0.628252922	0.665424027	0.343556924
52	6	0.647109596	0.675150514	0.353216601
52	6	0.627213421	0.692451054	0.343556924
52	6	0.646070095	0.702177541	0.353216601
52	6	0.62617392	0.719478081	0.343556924
52	6	0.645030594	0.729204568	0.353216601
52	6	0.625134419	0.746505108	0.343556924
52	6	0.643991093	0.756231595	0.353216601
52	6	0.624094918	0.773532135	0.343556924
52	6	0.642951591	0.783258622	0.353216601
52	6	0.623055417	0.800559162	0.343556924
52	6	0.64191209	0.810285649	0.353216601
52	6	0.622015916	0.827586189	0.343556924
52	6	0.640872589	0.837312676	0.353216601
52	6	0.620976415	0.854613216	0.343556924
52	6	0.639833088	0.864339703	0.353216601
52	6	0.619936914	0.881640243	0.343556924
52	6	0.638793587	0.89136673	0.353216601
52	6	0.618897413	0.90866727	0.343556924
52	6	0.637754086	0.918393757	0.353216601
52	6	0.617857912	0.935694297	0.343556924
52	6	0.636714585	0.945420784	0.353216601
52	6	0.616818411	0.962721324	0.343556924
52	6	0.635675084	0.972447811	0.353216601
52	6	0.61577891	0.989748351	0.343556924
52	6	0.634635583	0.999474838	0.353216601
52	6	0.691662485	0.016775378	0.343556924
52	6	0.710519159	0.026501865	0.353216601
52	6	0.690622984	0.043802405	0.343556924
52	6	0.709479658	0.053528892	0.353216601
52	6	0.689583483	0.070829432	0.343556924
52	6	0.708440157	0.080555919	0.353216601
52	6	0.688543982	0.097856459	0.343556924
52	6	0.707400656	0.107582946	0.353216601
52	6	0.687504481	0.124883486	0.343556924
52	6	0.706361155	0.134609973	0.353216601
52	6	0.68646498	0.151910514	0.343556924
52	6	0.705321654	0.161637	0.353216601
52	6	0.685425479	0.178937541	0.343556924
52	6	0.704282153	0.188664027	0.353216601
52	6	0.684385978	0.205964568	0.343556924
52	6	0.703242652	0.215691054	0.353216601
52	6	0.683346477	0.232991595	0.343556924
52	6	0.702203151	0.242718081	0.353216601
52	6	0.682306976	0.260018622	0.343556924
52	6	0.70116365	0.269745108	0.353216601
52	6	0.681267475	0.287045649	0.343556924
52	6	0.700124149	0.296772135	0.353216601
52	6	0.680227974	0.314072676	0.343556924
52	6	0.699084648	0.323799162	0.353216601
52	6	0.679188473	0.341099703	0.343556924
52	6	0.698045147	0.350826189	0.353216601
52	6	0.678148972	0.36812673	0.343556924
52	6	0.697005646	0.377853216	0.353216601
52	6	0.677109471	0.395153757	0.343556924
52	6	0.695966144	0.404880243	0.353216601
52	6	0.67606997	0.422180784	0.343556924
52	6	0.694926643	0.43190727	0.353216601
52	6	0.675030469	0.449207811	0.343556924
52	6	0.693887142	0.458934297	0.353216601
52	6	0.673990968	0.476234838	0.343556924
52	6	0.692847641	0.485961324	0.353216601
52	6	0.672951467	0.503261865	0.343556924
52	6	0.69180814	0.512988351	0.353216601
52	6	0.671911966	0.530288892	0.343556924
52	6	0.690768639	0.540015378	0.353216601
52	6	0.670872465	0.557315919	0.343556924
52	6	0.689729138	0.567042405	0.353216601
52	6	0.669832964	0.584342946	0.343556924
52	6	0.688689637	0.594069432	0.353216601
52	6	0.668793463	0.611369973	0.343556924
52	6	0.687650136	0.621096459	0.353216601
52	6	0.667753962	0.638397	0.343556924
52	6	0.686610635	0.648123486	0.353216601
52	6	0.66671446	0.665424027	0.343556924
52	6	0.685571134	0.675150514	0.353216601
52	6	0.665674959	0.692451054	0.343556924
52	6	0.684531633	0.702177541	0.353216601
52	6	0.664635458	0.719478081	0.343556924
52	6	0.683492132	0.729204568	0.353216601
52	6	0.663595957	0.746505108	0.343556924
52	6	0.682452631	0.756231595	0.353216601
52	6	0.662556456	0.773532135	0.343556924
52	6	0.68141313	0.783258622	0.353216601
52	6	0.661516955	0.800559162	0.343556924
52	6	0.680373629	0.810285649	0.353216601
52	6	0.660477454	0.827586189	0.343556924
52	6	0.679334128	0.837312676	0.353216601
52	6	0.659437953	0.854613216	0.343556924
52	6	0.678294627	0.864339703	0.353216601
52	6	0.658398452	0.881640243	0.343556924
52	6	0.677255126	0.89136673	0.353216601
52	6	0.657358951	0.90866727	0.343556924
52	6	0.676215625	0.918393757	0.353216601
52	6	0.65631945	0.935694297	0.343556924
52	6	0.675176124	0.945420784	0.353216601
52	6	0.655279949	0.962721324	0.343556924
52	6	0.674136623	0.972447811	0.353216601
52	6	0.654240448	0.989748351	0.343556924
52	6	0.673097122	0.999474838	0.353216601
52	6	0.730124024	0.016775378	0.343556924
52	6	0.748980698	0.026501865	0.353216601
52	6	0.729084523	0.043802405	0.343556924
52	6	0.747941196	0.053528892	0.353216601
52	6	0.728045022	0.070829432	0.343556924
52	6	0.746901695	0.080555919	0.353216601
52	6	0.727005521	0.097856459	0.343556924
52	6	0.745862194	0.107582946	0.353216601
52	6	0.72596602	0.124883486	0.343556924
52	6	0.744822693	0.134609973	0.353216601
52	6	0.724926519	0.151910514	0.343556924
52	6	0.743783192	0.161637	0.353216601
52	6	0.723887018	0.178937541	0.343556924
52	6	0.742743691	0.188664027	0.353216601
52	6	0.722847517	0.205964568	0.343556924
52	6	0.74170419	0.215691054	0.353216601
52	6	0.721808016	0.232991595	0.343556924
52	6	0.740664689	0.242718081	0.353216601
52	6	0.720768515	0.260018622	0.343556924
52	6	0.739625188	0.269745108	0.353216601
52	6	0.719729014	0.287045649	0.343556924
52	6	0.738585687	0.296772135	0.353216601
52	6	0.718689512	0.314072676	0.343556924
52	6	0.737546186	0.323799162	0.353216601
52	6	0.717650011	0.341099703	0.343556924
52	6	0.736506685	0.350826189	0.353216601
52	6	0.71661051	0.36812673	0.343556924
52	6	0.735467184	0.377853216	0.353216601
52	6	0.715571009	0.395153757	0.343556924
52	6	0.734427683	0.404880243	0.353216601
52	6	0.714531508	0.422180784	0.343556924
52	6	0.733388182	0.43190727	0.353216601
52	6	0.713492007	0.449207811	0.343556924
52	6	0.732348681	0.458934297	0.353216601
52	6	0.712452506	0.476234838	0.343556924
52	6	0.73130918	0.485961324	0.353216601
52	6	0.711413005	0.503261865	0.343556924
52	6	0.730269679	0.512988351	0.353216601
52	6	0.710373504	0.530288892	0.343556924
52	6	0.729230178	0.540015378	0.353216601
52	6	0.709334003	0.557315919	0.343556924
52	6	0.728190677	0.567042405	0.353216601
52	6	0.708294502	0.584342946	0.343556924
52	6	0.727151176	0.594069432	0.353216601
52	6	0.707255001	0.611369973	0.343556924
52	6	0.726111675	0.621096459	0.353216601
52	6	0.7062155	0.638397	0.343556924
52	6	0.725072174	0.648123486	0.353216601
52	6	0.705175999	0.665424027	0.343556924
52	6	0.724032673	0.675150514	0.353216601
52	6	0.704136498	0.692451054	0.343556924
52	6	0.722993172	0.702177541	0.353216601
52	6	0.703096997	0.719478081	0.343556924
52	6	0.72195367	0.729204568	0.353216601
52	6	0.702057496	0.746505108	0.343556924
52	6	0.720914169	0.756231595	0.353216601
52	6	0.701017995	0.773532135	0.343556924
52	6	0.719874668	0.783258622	0.353216601
52	6	0.699978494	0.800559162	0.343556924
52	6	0.718835167	0.810285649	0.353216601
52	6	0.698938993	0.827586189	0.343556924
52	6	0.717795666	0.837312676	0.353216601
52	6	0.697899492	0.854613216	0.343556924
52	6	0.716756165	0.864339703	0.353216601
52	6	0.696859991	0.881640243	0.343556924
52	6	0.715716664	0.89136673	0.353216601
52	6	0.69582049	0.90866727	0.343556924
52	6	0.714677163	0.918393757	0.353216601
52	6	0.694780989	0.935694297	0.343556924
52	6	0.713637662	0.945420784	0.353216601
52	6	0.693741488	0.962721324	0.343556924
52	6	0.712598161	0.972447811	0.353216601
52	6	0.692701986	0.989748351	0.343556924
52	6	0.71155866	0.999474838	0.353216601
52	6	0.768585562	0.016775378	0.343556924
52	6	0.787442236	0.026501865	0.353216601
52	6	0.767546061	0.043802405	0.343556924
52	6	0.786402735	0.053528892	0.353216601
52	6	0.76650656	0.070829432	0.343556924
52	6	0.785363234	0.080555919	0.353216601
52	6	0.765467059	0.097856459	0.343556924
52	6	0.784323733	0.107582946	0.353216601
52	6	0.764427558	0.124883486	0.343556924
52	6	0.783284232	0.134609973	0.353216601
52	6	0.763388057	0.151910514	0.343556924
52	6	0.782244731	0.161637	0.353216601
52	6	0.762348556	0.178937541	0.343556924
52	6	0.78120523	0.188664027	0.353216601
52	6	0.761309055	0.205964568	0.343556924
52	6	0.780165729	0.215691054	0.353216601
52	6	0.760269554	0.232991595	0.343556924
52	6	0.779126228	0.242718081	0.353216601
52	6	0.759230053	0.260018622	0.343556924
52	6	0.778086727	0.269745108	0.353216601
52	6	0.758190552	0.287045649	0.343556924
52	6	0.777047226	0.296772135	0.353216601
52	6	0.757151051	0.314072676	0.343556924
52	6	0.776007725	0.323799162	0.353216601
52	6	0.75611155	0.341099703	0.343556924
52	6	0.774968223	0.350826189	0.353216601
52	6	0.755072049	0.36812673	0.343556924
52	6	0.773928722	0.377853216	0.353216601
52	6	0.754032548	0.395153757	0.343556924
52	6	0.772889221	0.404880243	0.353216601
52	6	0.752993047	0.422180784	0.343556924
52	6	0.77184972	0.43190727	0.353216601
52	6	0.751953546	0.449207811	0.343556924
52	6	0.770810219	0.458934297	0.353216601
52	6	0.750914045	0.476234838	0.343556924
52	6	0.769770718	0.485961324	0.353216601
52	6	0.749874544	0.503261865	0.343556924
52	6	0.768731217	0.512988351	0.353216601
52	6	0.748835043	0.530288892	0.343556924
52	6	0.767691716	0.540015378	0.353216601
52	6	0.747795542	0.557315919	0.343556924
52	6	0.766652215	0.567042405	0.353216601
52	6	0.746756041	0.584342946	0.343556924
52	6	0.765612714	0.594069432	0.353216601
52	6	0.74571654	0.611369973	0.343556924
52	6	0.764573213	0.621096459	0.353216601
52	6	0.744677038	0.638397	0.343556924
52	6	0.763533712	0.648123486	0.353216601
52	6	0.743637537	0.665424027	0.343556924
52	6	0.762494211	0.675150514	0.353216601
52	6	0.742598036	0.692451054	0.343556924
52	6	0.76145471	0.702177541	0.353216601
52	6	0.741558535	0.719478081	0.343556924
52	6	0.760415209	0.729204568	0.353216601
52	6	0.740519034	0.746505108	0.343556924
52	6	0.759375708	0.756231595	0.353216601
52	6	0.739479533	0.773532135	0.343556924
52	6	0.758336207	0.783258622	0.353216601
52	6	0.738440032	0.800559162	0.343556924
52	6	0.757296706	0.810285649	0.353216601
52	6	0.737400531	0.827586189	0.343556924
52	6	0.756257205	0.837312676	0.353216601
52	6	0.73636103	0.854613216	0.343556924
52	6	0.755217704	0.864339703	0.353216601
52	6	0.735321529	0.881640243	0.343556924
52	6	0.754178203	0.89136673	0.353216601
52	6	0.734282028	0.90866727	0.343556924
52	6	0.753138702	0.918393757	0.353216601
52	6	0.733242527	0.935694297	0.343556924
52	6	0.752099201	0.945420784	0.353216601
52	6	0.732203026	0.962721324	0.343556924
52	6	0.7510597	0.972447811	0.353216601
52	6	0.731163525	0.989748351	0.343556924
52	6	0.750020199	0.999474838	0.353216601
52	6	0.807047101	0.016775378	0.343556924
52	6	0.825903774	0.026501865	0.353216601
52	6	0.8060076	0.043802405	0.343556924
52	6	0.824864273	0.053528892	0.353216601
52	6	0.804968099	0.070829432	0.343556924
52	6	0.823824772	0.080555919	0.353216601
52	6	0.803928598	0.097856459	0.343556924
52	6	0.822785271	0.107582946	0.353216601
52	6	0.802889097	0.124883486	0.343556924
52	6	0.82174577	0.134609973	0.353216601
52	6	0.801849596	0.151910514	0.343556924
52	6	0.820706269	0.161637	0.353216601
52	6	0.800810095	0.178937541	0.343556924
52	6	0.819666768	0.188664027	0.353216601
52	6	0.799770594	0.205964568	0.343556924
52	6	0.818627267	0.215691054	0.353216601
52	6	0.798731093	0.232991595	0.343556924
52	6	0.817587766	0.242718081	0.353216601
52	6	0.797691591	0.260018622	0.343556924
52	6	0.816548265	0.269745108	0.353216601
52	6	0.79665209	0.287045649	0.343556924
52	6	0.815508764	0.296772135	0.353216601
52	6	0.795612589	0.314072676	0.343556924
52	6	0.814469263	0.323799162	0.353216601
52	6	0.794573088	0.341099703	0.343556924
52	6	0.813429762	0.350826189	0.353216601
52	6	0.793533587	0.36812673	0.343556924
52	6	0.812390261	0.377853216	0.353216601
52	6	0.792494086	0.395153757	0.343556924
52	6	0.81135076	0.404880243	0.353216601
52	6	0.791454585	0.422180784	0.343556924
52	6	0.810311259	0.43190727	0.353216601
52	6	0.790415084	0.449207811	0.343556924
52	6	0.809271758	0.458934297	0.353216601
52	6	0.789375583	0.476234838	0.343556924
52	6	0.808232257	0.485961324	0.353216601
52	6	0.788336082	0.503261865	0.343556924
52	6	0.807192756	0.512988351	0.353216601
52	6	0.787296581	0.530288892	0.343556924
52	6	0.806153255	0.540015378	0.353216601
52	6	0.78625708	0.557315919	0.343556924
52	6	0.805113754	0.567042405	0.353216601
52	6	0.785217579	0.584342946	0.343556924
52	6	0.804074253	0.594069432	0.353216601
52	6	0.784178078	0.611369973	0.343556924
52	6	0.803034752	0.621096459	0.353216601
52	6	0.783138577	0.638397	0.343556924
52	6	0.801995251	0.648123486	0.353216601
52	6	0.782099076	0.665424027	0.343556924
52	6	0.800955749	0.675150514	0.353216601
52	6	0.781059575	0.692451054	0.343556924
52	6	0.799916248	0.702177541	0.353216601
52	6	0.780020074	0.719478081	0.343556924
52	6	0.798876747	0.729204568	0.353216601
52	6	0.778980573	0.746505108	0.343556924
52	6	0.797837246	0.756231595	0.353216601
52	6	0.777941072	0.773532135	0.343556924
52	6	0.796797745	0.783258622	0.353216601
52	6	0.776901571	0.800559162	0.343556924
52	6	0.795758244	0.810285649	0.353216601
52	6	0.77586207	0.827586189	0.343556924
52	6	0.794718743	0.837312676	0.353216601
52	6	0.774822569	0.854613216	0.343556924
52	6	0.793679242	0.864339703	0.353216601
52	6	0.773783068	0.881640243	0.343556924
52	6	0.792639741	0.89136673	0.353216601
52	6	0.772743567	0.90866727	0.343556924
52	6	0.79160024	0.918393757	0.353216601
52	6	0.771704065	0.935694297	0.343556924
52	6	0.790560739	0.945420784	0.353216601
52	6	0.770664564	0.962721324	0.343556924
52	6	0.789521238	0.972447811	0.353216601
52	6	0.769625063	0.989748351	0.343556924
52	6	0.788481737	0.999474838	0.353216601
52	6	0.845508639	0.016775378	0.343556924
52	6	0.864365313	0.026501865	0.353216601
52	6	0.844469138	0.043802405	0.343556924
52	6	0.863325812	0.053528892	0.353216601
52	6	0.843429637	0.070829432	0.343556924
52	6	0.862286311	0.080555919	0.353216601
52	6	0.842390136	0.097856459	0.343556924
52	6	0.86124681	0.107582946	0.353216601
52	6	0.841350635	0.124883486	0.343556924
52	6	0.860207309	0.134609973	0.353216601
52	6	0.840311134	0.151910514	0.343556924
52	6	0.859167808	0.161637	0.353216601
52	6	0.839271633	0.178937541	0.343556924
52	6	0.858128307	0.188664027	0.353216601
52	6	0.838232132	0.205964568	0.343556924
52	6	0.857088806	0.215691054	0.353216601
52	6	0.837192631	0.232991595	0.343556924
52	6	0.856049305	0.242718081	0.353216601
52	6	0.83615313	0.260018622	0.343556924
52	6	0.855009804	0.269745108	0.353216601
52	6	0.835113629	0.287045649	0.343556924
52	6	0.853970302	0.296772135	0.353216601
52	6	0.834074128	0.314072676	0.343556924
52	6	0.852930801	0.323799162	0.353216601
52	6	0.833034627	0.341099703	0.343556924
52	6	0.8518913	0.350826189	0.353216601
52	6	0.831995126	0.36812673	0.343556924
52	6	0.850851799	0.377853216	0.353216601
52	6	0.830955625	0.395153757	0.343556924
52	6	0.849812298	0.404880243	0.353216601
52	6	0.829916124	0.422180784	0.343556924
52	6	0.848772797	0.43190727	0.353216601
52	6	0.828876623	0.449207811	0.343556924
52	6	0.847733296	0.458934297	0.353216601
52	6	0.827837122	0.476234838	0.343556924
52	6	0.846693795	0.485961324	0.353216601
52	6	0.826797621	0.503261865	0.343556924
52	6	0.845654294	0.512988351	0.353216601
52	6	0.82575812	0.530288892	0.343556924
52	6	0.844614793	0.540015378	0.353216601
52	6	0.824718619	0.557315919	0.343556924
52	6	0.843575292	0.567042405	0.353216601
52	6	0.823679117	0.584342946	0.343556924
52	6	0.842535791	0.594069432	0.353216601
52	6	0.822639616	0.611369973	0.343556924
52	6	0.84149629	0.621096459	0.353216601
52	6	0.821600115	0.638397	0.343556924
52	6	0.840456789	0.648123486	0.353216601
52	6	0.820560614	0.665424027	0.343556924
52	6	0.839417288	0.675150514	0.353216601
52	6	0.819521113	0.692451054	0.343556924
52	6	0.838377787	0.702177541	0.353216601
52	6	0.818481612	0.719478081	0.343556924
52	6	0.837338286	0.729204568	0.353216601
52	6	0.817442111	0.746505108	0.343556924
52	6	0.836298785	0.756231595	0.353216601
52	6	0.81640261	0.773532135	0.343556924
52	6	0.835259284	0.783258622	0.353216601
52	6	0.815363109	0.800559162	0.343556924
52	6	0.834219783	0.810285649	0.353216601
52	6	0.814323608	0.827586189	0.343556924
52	6	0.833180282	0.837312676	0.353216601
52	6	0.813284107	0.854613216	0.343556924
52	6	0.832140781	0.864339703	0.353216601
52	6	0.812244606	0.881640243	0.343556924
52	6	0.83110128	0.89136673	0.353216601
52	6	0.811205105	0.90866727	0.343556924
52	6	0.830061779	0.918393757	0.353216601
52	6	0.810165604	0.935694297	0.343556924
52	6	0.829022278	0.945420784	0.353216601
52	6	0.809126103	0.962721324	0.343556924
52	6	0.827982777	0.972447811	0.353216601
52	6	0.808086602	0.989748351	0.343556924
52	6	0.826943275	0.999474838	0.353216601
52	6	0.883970178	0.016775378	0.343556924
52	6	0.902826851	0.026501865	0.353216601
52	6	0.882930677	0.043802405	0.343556924
52	6	0.90178735	0.053528892	0.353216601
52	6	0.881891176	0.070829432	0.343556924
52	6	0.900747849	0.080555919	0.353216601
52	6	0.880851675	0.097856459	0.343556924
52	6	0.899708348	0.107582946	0.353216601
52	6	0.879812174	0.124883486	0.343556924
52	6	0.898668847	0.134609973	0.353216601
52	6	0.878772673	0.151910514	0.343556924
52	6	0.897629346	0.161637	0.353216601
52	6	0.877733172	0.178937541	0.343556924
52	6	0.896589845	0.188664027	0.353216601
52	6	0.87669367	0.205964568	0.343556924
52	6	0.895550344	0.215691054	0.353216601
52	6	0.875654169	0.232991595	0.343556924
52	6	0.894510843	0.242718081	0.353216601
52	6	0.874614668	0.260018622	0.343556924
52	6	0.893471342	0.269745108	0.353216601
52	6	0.873575167	0.287045649	0.343556924
52	6	0.892431841	0.296772135	0.353216601
52	6	0.872535666	0.314072676	0.343556924
52	6	0.89139234	0.323799162	0.353216601
52	6	0.871496165	0.341099703	0.343556924
52	6	0.890352839	0.350826189	0.353216601
52	6	0.870456664	0.36812673	0.343556924
52	6	0.889313338	0.377853216	0.353216601
52	6	0.869417163	0.395153757	0.343556924
52	6	0.888273837	0.404880243	0.353216601
52	6	0.868377662	0.422180784	0.343556924
52	6	0.887234336	0.43190727	0.353216601
52	6	0.867338161	0.449207811	0.343556924
52	6	0.886194835	0.458934297	0.353216601
52	6	0.86629866	0.476234838	0.343556924
52	6	0.885155334	0.485961324	0.353216601
52	6	0.865259159	0.503261865	0.343556924
52	6	0.884115833	0.512988351	0.353216601
52	6	0.864219658	0.530288892	0.343556924
52	6	0.883076332	0.540015378	0.353216601
52	6	0.863180157	0.557315919	0.343556924
52	6	0.882036831	0.567042405	0.353216601
52	6	0.862140656	0.584342946	0.343556924
52	6	0.88099733	0.594069432	0.353216601
52	6	0.861101155	0.611369973	0.343556924
52	6	0.879957828	0.621096459	0.353216601
52	6	0.860061654	0.638397	0.343556924
52	6	0.878918327	0.648123486	0.353216601
52	6	0.859022153	0.665424027	0.343556924
52	6	0.877878826	0.675150514	0.353216601
52	6	0.857982652	0.692451054	0.343556924
52	6	0.876839325	0.702177541	0.353216601
52	6	0.856943151	0.719478081	0.343556924
52	6	0.875799824	0.729204568	0.353216601
52	6	0.85590365	0.746505108	0.343556924
52	6	0.874760323	0.756231595	0.353216601
52	6	0.854864149	0.773532135	0.343556924
52	6	0.873720822	0.783258622	0.353216601
52	6	0.853824648	0.800559162	0.343556924
52	6	0.872681321	0.810285649	0.353216601
52	6	0.852785147	0.827586189	0.343556924
52	6	0.87164182	0.837312676	0.353216601
52	6	0.851745646	0.854613216	0.343556924
52	6	0.870602319	0.864339703	0.353216601
52	6	0.850706144	0.881640243	0.343556924
52	6	0.869562818	0.89136673	0.353216601
52	6	0.849666643	0.90866727	0.343556924
52	6	0.868523317	0.918393757	0.353216601
52	6	0.848627142	0.935694297	0.343556924
52	6	0.867483816	0.945420784	0.353216601
52	6	0.847587641	0.962721324	0.343556924
52	6	0.866444315	0.972447811	0.353216601
52	6	0.84654814	0.989748351	0.343556924
52	6	0.865404814	0.999474838	0.353216601
52	6	0.922431716	0.016775378	0.343556924
52	6	0.94128839	0.026501865	0.353216601
52	6	0.921392215	0.043802405	0.343556924
52	6	0.940248889	0.053528892	0.353216601
52	6	0.920352714	0.070829432	0.343556924
52	6	0.939209388	0.080555919	0.353216601
52	6	0.919313213	0.097856459	0.343556924
52	6	0.938169887	0.107582946	0.353216601
52	6	0.918273712	0.124883486	0.343556924
52	6	0.937130386	0.134609973	0.353216601
52	6	0.917234211	0.151910514	0.343556924
52	6	0.936090885	0.161637	0.353216601
52	6	0.91619471	0.178937541	0.343556924
52	6	0.935051384	0.188664027	0.353216601
52	6	0.915155209	0.205964568	0.343556924
52	6	0.934011883	0.215691054	0.353216601
52	6	0.914115708	0.232991595	0.343556924
52	6	0.932972381	0.242718081	0.353216601
52	6	0.913076207	0.260018622	0.343556924
52	6	0.93193288	0.269745108	0.353216601
52	6	0.912036706	0.287045649	0.343556924
52	6	0.930893379	0.296772135	0.353216601
52	6	0.910997205	0.314072676	0.343556924
52	6	0.929853878	0.323799162	0.353216601
52	6	0.909957704	0.341099703	0.343556924
52	6	0.928814377	0.350826189	0.353216601
52	6	0.908918203	0.36812673	0.343556924
52	6	0.927774876	0.377853216	0.353216601
52	6	0.907878702	0.395153757	0.343556924
52	6	0.926735375	0.404880243	0.353216601
52	6	0.906839201	0.422180784	0.343556924
52	6	0.925695874	0.43190727	0.353216601
52	6	0.9057997	0.449207811	0.343556924
52	6	0.924656373	0.458934297	0.353216601
52	6	0.904760199	0.476234838	0.343556924
52	6	0.923616872	0.485961324	0.353216601
52	6	0.903720698	0.503261865	0.343556924
52	6	0.922577371	0.512988351	0.353216601
52	6	0.902681196	0.530288892	0.343556924
52	6	0.92153787	0.540015378	0.353216601
52	6	0.901641695	0.557315919	0.343556924
52	6	0.920498369	0.567042405	0.353216601
52	6	0.900602194	0.584342946	0.343556924
52	6	0.919458868	0.594069432	0.353216601
52	6	0.899562693	0.611369973	0.343556924
52	6	0.918419367	0.621096459	0.353216601
52	6	0.898523192	0.638397	0.343556924
52	6	0.917379866	0.648123486	0.353216601
52	6	0.897483691	0.665424027	0.343556924
52	6	0.916340365	0.675150514	0.353216601
52	6	0.89644419	0.692451054	0.343556924
52	6	0.915300864	0.702177541	0.353216601
52	6	0.895404689	0.719478081	0.343556924
52	6	0.914261363	0.729204568	0.353216601
52	6	0.894365188	0.746505108	0.343556924
52	6	0.913221862	0.756231595	0.353216601
52	6	0.893325687	0.773532135	0.343556924
52	6	0.912182361	0.783258622	0.353216601
52	6	0.892286186	0.800559162	0.343556924
52	6	0.91114286	0.810285649	0.353216601
52	6	0.891246685	0.827586189	0.343556924
52	6	0.910103359	0.837312676	0.353216601
52	6	0.890207184	0.854613216	0.343556924
52	6	0.909063858	0.864339703	0.353216601
52	6	0.889167683	0.881640243	0.343556924
52	6	0.908024357	0.89136673	0.353216601
52	6	0.888128182	0.90866727	0.343556924
52	6	0.906984856	0.918393757	0.353216601
52	6	0.887088681	0.935694297	0.343556924
52	6	0.905945354	0.945420784	0.353216601
52	6	0.88604918	0.962721324	0.343556924
52	6	0.904905853	0.972447811	0.353216601
52	6	0.885009679	0.989748351	0.343556924
52	6	0.903866352	0.999474838	0.353216601
52	6	0.960893255	0.016775378	0.343556924
52	6	0.979749928	0.026501865	0.353216601
52	6	0.959853754	0.043802405	0.343556924
52	6	0.978710427	0.053528892	0.353216601
52	6	0.958814253	0.070829432	0.343556924
52	6	0.977670926	0.080555919	0.353216601
52	6	0.957774752	0.097856459	0.343556924
52	6	0.976631425	0.107582946	0.353216601
52	6	0.956735251	0.124883486	0.343556924
52	6	0.975591924	0.134609973	0.353216601
52	6	0.955695749	0.151910514	0.343556924
52	6	0.974552423	0.161637	0.353216601
52	6	0.954656248	0.178937541	0.343556924
52	6	0.973512922	0.188664027	0.353216601
52	6	0.953616747	0.205964568	0.343556924
52	6	0.972473421	0.215691054	0.353216601
52	6	0.952577246	0.232991595	0.343556924
52	6	0.97143392	0.242718081	0.353216601
52	6	0.951537745	0.260018622	0.343556924
52	6	0.970394419	0.269745108	0.353216601
52	6	0.950498244	0.287045649	0.343556924
52	6	0.969354918	0.296772135	0.353216601
52	6	0.949458743	0.314072676	0.343556924
52	6	0.968315417	0.323799162	0.353216601
52	6	0.948419242	0.341099703	0.343556924
52	6	0.967275916	0.350826189	0.353216601
52	6	0.947379741	0.36812673	0.343556924
52	6	0.966236415	0.377853216	0.353216601
52	6	0.94634024	0.395153757	0.343556924
52	6	0.965196914	0.404880243	0.353216601
52	6	0.945300739	0.422180784	0.343556924
52	6	0.964157413	0.43190727	0.353216601
52	6	0.944261238	0.449207811	0.343556924
52	6	0.963117912	0.458934297	0.353216601
52	6	0.943221737	0.476234838	0.343556924
52	6	0.962078411	0.485961324	0.353216601
52	6	0.942182236	0.503261865	0.343556924
52	6	0.96103891	0.512988351	0.353216601
52	6	0.941142735	0.530288892	0.343556924
52	6	0.959999409	0.540015378	0.353216601
52	6	0.940103234	0.557315919	0.343556924
52	6	0.958959907	0.567042405	0.353216601
52	6	0.939063733	0.584342946	0.343556924
52	6	0.957920406	0.594069432	0.353216601
52	6	0.938024232	0.611369973	0.343556924
52	6	0.956880905	0.621096459	0.353216601
52	6	0.936984731	0.638397	0.343556924
52	6	0.955841404	0.648123486	0.353216601
52	6	0.93594523	0.665424027	0.343556924
52	6	0.954801903	0.675150514	0.353216601
52	6	0.934905729	0.692451054	0.343556924
52	6	0.953762402	0.702177541	0.353216601
52	6	0.933866228	0.719478081	0.343556924
52	6	0.952722901	0.729204568	0.353216601
52	6	0.932826727	0.746505108	0.343556924
52	6	0.9516834	0.756231595	0.353216601
52	6	0.931787226	0.773532135	0.343556924
52	6	0.950643899	0.783258622	0.353216601
52	6	0.930747725	0.800559162	0.343556924
52	6	0.949604398	0.810285649	0.353216601
52	6	0.929708223	0.827586189	0.343556924
52	6	0.948564897	0.837312676	0.353216601
52	6	0.928668722	0.854613216	0.343556924
52	6	0.947525396	0.864339703	0.353216601
52	6	0.927629221	0.881640243	0.343556924
52	6	0.946485895	0.89136673	0.353216601
52	6	0.92658972	0.90866727	0.343556924
52	6	0.945446394	0.918393757	0.353216601
52	6	0.925550219	0.935694297	0.343556924
52	6	0.944406893	0.945420784	0.353216601
52	6	0.924510718	0.962721324	0.343556924
52	6	0.943367392	0.972447811	0.353216601
52	6	0.923471217	0.989748351	0.343556924
52	6	0.942327891	0.999474838	0.353216601
52	6	0.998315292	0.043802405	0.343556924
52	6	0.017171966	0.053528892	0.353216601
52	6	0.997275791	0.070829432	0.343556924
52	6	0.016132465	0.080555919	0.353216601
52	6	0.99623629	0.097856459	0.343556924
52	6	0.015092964	0.107582946	0.353216601
52	6	0.995196789	0.124883486	0.343556924
52	6	0.014053463	0.134609973	0.353216601
52	6	0.994157288	0.151910514	0.343556924
52	6	0.013013962	0.161637	0.353216601
52	6	0.993117787	0.178937541	0.343556924
52	6	0.01197446	0.188664027	0.353216601
52	6	0.992078286	0.205964568	0.343556924
52	6	0.010934959	0.215691054	0.353216601
52	6	0.991038785	0.232991595	0.343556924
52	6	0.009895458	0.242718081	0.353216601
52	6	0.989999284	0.260018622	0.343556924
52	6	0.008855957	0.269745108	0.353216601
52	6	0.988959783	0.287045649	0.343556924
52	6	0.007816456	0.296772135	0.353216601
52	6	0.987920282	0.314072676	0.343556924
52	6	0.006776955	0.323799162	0.353216601
52	6	0.986880781	0.341099703	0.343556924
52	6	0.005737454	0.350826189	0.353216601
52	6	0.98584128	0.36812673	0.343556924
52	6	0.004697953	0.377853216	0.353216601
52	6	0.984801779	0.395153757	0.343556924
52	6	0.003658452	0.404880243	0.353216601
52	6	0.983762278	0.422180784	0.343556924
52	6	0.002618951	0.43190727	0.353216601
52	6	0.982722777	0.449207811	0.343556924
52	6	0.00157945	0.458934297	0.353216601
52	6	0.981683275	0.476234838	0.343556924
52	6	0.000539949	0.485961324	0.353216601
52	6	0.980643774	0.503261865	0.343556924
52	6	0.999500448	0.512988351	0.353216601
52	6	0.979604273	0.530288892	0.343556924
52	6	0.998460947	0.540015378	0.353216601
52	6	0.978564772	0.557315919	0.343556924
52	6	0.997421446	0.567042405	0.353216601
52	6	0.977525271	0.584342946	0.343556924
52	6	0.996381945	0.594069432	0.353216601
52	6	0.97648577	0.611369973	0.343556924
52	6	0.995342444	0.621096459	0.353216601
52	6	0.975446269	0.638397	0.343556924
52	6	0.994302943	0.648123486	0.353216601
52	6	0.974406768	0.665424027	0.343556924
52	6	0.993263442	0.675150514	0.353216601
52	6	0.973367267	0.692451054	0.343556924
52	6	0.992223941	0.702177541	0.353216601
52	6	0.972327766	0.719478081	0.343556924
52	6	0.99118444	0.729204568	0.353216601
52	6	0.971288265	0.746505108	0.343556924
52	6	0.990144939	0.756231595	0.353216601
52	6	0.970248764	0.773532135	0.343556924
52	6	0.989105438	0.783258622	0.353216601
52	6	0.969209263	0.800559162	0.343556924
52	6	0.988065937	0.810285649	0.353216601
52	6	0.968169762	0.827586189	0.343556924
52	6	0.987026436	0.837312676	0.353216601
52	6	0.967130261	0.854613216	0.343556924
52	6	0.985986935	0.864339703	0.353216601
52	6	0.96609076	0.881640243	0.343556924
52	6	0.984947433	0.89136673	0.353216601
52	6	0.965051259	0.90866727	0.343556924
52	6	0.983907932	0.918393757	0.353216601
52	6	0.964011758	0.935694297	0.343556924
52	6	0.982868431	0.945420784	0.353216601
52	6	0.962972257	0.962721324	0.343556924
52	6	0.98182893	0.972447811	0.353216601
52	6	0.961932756	0.989748351	0.343556924
52	6	0.980789429	0.999474838	0.353216601
52	6	0.97933447	0.037303784	0.647726026
52	6	0.998939491	0.027573243	0.655905929
52	6	0.978294969	0.064330811	0.647726026
52	6	0.99789999	0.05460027	0.655905929
52	6	0.977255468	0.091357838	0.647726026
52	6	0.996860489	0.081627297	0.655905929
52	6	0.976215967	0.118384865	0.647726026
52	6	0.995820988	0.108654324	0.655905929
52	6	0.975176466	0.145411892	0.647726026
52	6	0.994781486	0.135681351	0.655905929
52	6	0.974136965	0.172438919	0.647726026
52	6	0.993741985	0.162708378	0.655905929
52	6	0.973097464	0.199465946	0.647726026
52	6	0.992702484	0.189735405	0.655905929
52	6	0.972057963	0.226492973	0.647726026
52	6	0.991662983	0.216762432	0.655905929
52	6	0.971018462	0.25352	0.647726026
52	6	0.990623482	0.243789459	0.655905929
52	6	0.96997896	0.280547027	0.647726026
52	6	0.989583981	0.270816486	0.655905929
52	6	0.968939459	0.307574054	0.647726026
52	6	0.98854448	0.297843514	0.655905929
52	6	0.967899958	0.334601081	0.647726026
52	6	0.987504979	0.324870541	0.655905929
52	6	0.966860457	0.361628108	0.647726026
52	6	0.986465478	0.351897568	0.655905929
52	6	0.965820956	0.388655135	0.647726026
52	6	0.985425977	0.378924595	0.655905929
52	6	0.964781455	0.415682162	0.647726026
52	6	0.984386476	0.405951622	0.655905929
52	6	0.963741954	0.442709189	0.647726026
52	6	0.983346975	0.432978649	0.655905929
52	6	0.962702453	0.469736216	0.647726026
52	6	0.982307474	0.460005676	0.655905929
52	6	0.961662952	0.496763243	0.647726026
52	6	0.981267973	0.487032703	0.655905929
52	6	0.960623451	0.52379027	0.647726026
52	6	0.980228472	0.51405973	0.655905929
52	6	0.95958395	0.550817297	0.647726026
52	6	0.979188971	0.541086757	0.655905929
52	6	0.958544449	0.577844324	0.647726026
52	6	0.97814947	0.568113784	0.655905929
52	6	0.957504948	0.604871351	0.647726026
52	6	0.977109969	0.595140811	0.655905929
52	6	0.956465447	0.631898378	0.647726026
52	6	0.976070468	0.622167838	0.655905929
52	6	0.955425946	0.658925405	0.647726026
52	6	0.975030967	0.649194865	0.655905929
52	6	0.954386445	0.685952432	0.647726026
52	6	0.973991466	0.676221892	0.655905929
52	6	0.953346944	0.712979459	0.647726026
52	6	0.972951965	0.703248919	0.655905929
52	6	0.952307443	0.740006486	0.647726026
52	6	0.971912464	0.730275946	0.655905929
52	6	0.951267942	0.767033514	0.647726026
52	6	0.970872963	0.757302973	0.655905929
52	6	0.950228441	0.794060541	0.647726026
52	6	0.969833462	0.78433	0.655905929
52	6	0.94918894	0.821087568	0.647726026
52	6	0.96879396	0.811357027	0.655905929
52	6	0.948149439	0.848114595	0.647726026
52	6	0.967754459	0.838384054	0.655905929
52	6	0.947109938	0.875141622	0.647726026
52	6	0.966714958	0.865411081	0.655905929
52	6	0.946070437	0.902168649	0.647726026
52	6	0.965675457	0.892438108	0.655905929
52	6	0.945030936	0.929195676	0.647726026
52	6	0.964635956	0.919465135	0.655905929
52	6	0.943991435	0.956222703	0.647726026
52	6	0.963596455	0.946492162	0.655905929
52	6	0.942951933	0.98324973	0.647726026
52	6	0.962556954	0.973519189	0.655905929
52	6	0.941912432	0.010276757	0.647726026
52	6	0.961517453	0.000546216	0.655905929
52	6	0.940872931	0.037303784	0.647726026
52	6	0.960477952	0.027573243	0.655905929
52	6	0.93983343	0.064330811	0.647726026
52	6	0.959438451	0.05460027	0.655905929
52	6	0.938793929	0.091357838	0.647726026
52	6	0.95839895	0.081627297	0.655905929
52	6	0.937754428	0.118384865	0.647726026
52	6	0.957359449	0.108654324	0.655905929
52	6	0.936714927	0.145411892	0.647726026
52	6	0.956319948	0.135681351	0.655905929
52	6	0.935675426	0.172438919	0.647726026
52	6	0.955280447	0.162708378	0.655905929
52	6	0.934635925	0.199465946	0.647726026
52	6	0.954240946	0.189735405	0.655905929
52	6	0.933596424	0.226492973	0.647726026
52	6	0.953201445	0.216762432	0.655905929
52	6	0.932556923	0.25352	0.647726026
52	6	0.952161944	0.243789459	0.655905929
52	6	0.931517422	0.280547027	0.647726026
52	6	0.951122443	0.270816486	0.655905929
52	6	0.930477921	0.307574054	0.647726026
52	6	0.950082942	0.297843514	0.655905929
52	6	0.92943842	0.334601081	0.647726026
52	6	0.949043441	0.324870541	0.655905929
52	6	0.928398919	0.361628108	0.647726026
52	6	0.94800394	0.351897568	0.655905929
52	6	0.927359418	0.388655135	0.647726026
52	6	0.946964439	0.378924595	0.655905929
52	6	0.926319917	0.415682162	0.647726026
52	6	0.945924938	0.405951622	0.655905929
52	6	0.925280416	0.442709189	0.647726026
52	6	0.944885437	0.432978649	0.655905929
52	6	0.924240915	0.469736216	0.647726026
52	6	0.943845936	0.460005676	0.655905929
52	6	0.923201414	0.496763243	0.647726026
52	6	0.942806435	0.487032703	0.655905929
52	6	0.922161913	0.52379027	0.647726026
52	6	0.941766933	0.51405973	0.655905929
52	6	0.921122412	0.550817297	0.647726026
52	6	0.940727432	0.541086757	0.655905929
52	6	0.920082911	0.577844324	0.647726026
52	6	0.939687931	0.568113784	0.655905929
52	6	0.91904341	0.604871351	0.647726026
52	6	0.93864843	0.595140811	0.655905929
52	6	0.918003909	0.631898378	0.647726026
52	6	0.937608929	0.622167838	0.655905929
52	6	0.916964407	0.658925405	0.647726026
52	6	0.936569428	0.649194865	0.655905929
52	6	0.915924906	0.685952432	0.647726026
52	6	0.935529927	0.676221892	0.655905929
52	6	0.914885405	0.712979459	0.647726026
52	6	0.934490426	0.703248919	0.655905929
52	6	0.913845904	0.740006486	0.647726026
52	6	0.933450925	0.730275946	0.655905929
52	6	0.912806403	0.767033514	0.647726026
52	6	0.932411424	0.757302973	0.655905929
52	6	0.911766902	0.794060541	0.647726026
52	6	0.931371923	0.78433	0.655905929
52	6	0.910727401	0.821087568	0.647726026
52	6	0.930332422	0.811357027	0.655905929
52	6	0.9096879	0.848114595	0.647726026
52	6	0.929292921	0.838384054	0.655905929
52	6	0.908648399	0.875141622	0.647726026
52	6	0.92825342	0.865411081	0.655905929
52	6	0.907608898	0.902168649	0.647726026
52	6	0.927213919	0.892438108	0.655905929
52	6	0.906569397	0.929195676	0.647726026
52	6	0.926174418	0.919465135	0.655905929
52	6	0.905529896	0.956222703	0.647726026
52	6	0.925134917	0.946492162	0.655905929
52	6	0.904490395	0.98324973	0.647726026
52	6	0.924095416	0.973519189	0.655905929
52	6	0.903450894	0.010276757	0.647726026
52	6	0.923055915	0.000546216	0.655905929
52	6	0.902411393	0.037303784	0.647726026
52	6	0.922016414	0.027573243	0.655905929
52	6	0.901371892	0.064330811	0.647726026
52	6	0.920976913	0.05460027	0.655905929
52	6	0.900332391	0.091357838	0.647726026
52	6	0.919937412	0.081627297	0.655905929
52	6	0.89929289	0.118384865	0.647726026
52	6	0.918897911	0.108654324	0.655905929
52	6	0.898253389	0.145411892	0.647726026
52	6	0.91785841	0.135681351	0.655905929
52	6	0.897213888	0.172438919	0.647726026
52	6	0.916818909	0.162708378	0.655905929
52	6	0.896174387	0.199465946	0.647726026
52	6	0.915779407	0.189735405	0.655905929
52	6	0.895134886	0.226492973	0.647726026
52	6	0.914739906	0.216762432	0.655905929
52	6	0.894095385	0.25352	0.647726026
52	6	0.913700405	0.243789459	0.655905929
52	6	0.893055884	0.280547027	0.647726026
52	6	0.912660904	0.270816486	0.655905929
52	6	0.892016383	0.307574054	0.647726026
52	6	0.911621403	0.297843514	0.655905929
52	6	0.890976881	0.334601081	0.647726026
52	6	0.910581902	0.324870541	0.655905929
52	6	0.88993738	0.361628108	0.647726026
52	6	0.909542401	0.351897568	0.655905929
52	6	0.888897879	0.388655135	0.647726026
52	6	0.9085029	0.378924595	0.655905929
52	6	0.887858378	0.415682162	0.647726026
52	6	0.907463399	0.405951622	0.655905929
52	6	0.886818877	0.442709189	0.647726026
52	6	0.906423898	0.432978649	0.655905929
52	6	0.885779376	0.469736216	0.647726026
52	6	0.905384397	0.460005676	0.655905929
52	6	0.884739875	0.496763243	0.647726026
52	6	0.904344896	0.487032703	0.655905929
52	6	0.883700374	0.52379027	0.647726026
52	6	0.903305395	0.51405973	0.655905929
52	6	0.882660873	0.550817297	0.647726026
52	6	0.902265894	0.541086757	0.655905929
52	6	0.881621372	0.577844324	0.647726026
52	6	0.901226393	0.568113784	0.655905929
52	6	0.880581871	0.604871351	0.647726026
52	6	0.900186892	0.595140811	0.655905929
52	6	0.87954237	0.631898378	0.647726026
52	6	0.899147391	0.622167838	0.655905929
52	6	0.878502869	0.658925405	0.647726026
52	6	0.89810789	0.649194865	0.655905929
52	6	0.877463368	0.685952432	0.647726026
52	6	0.897068389	0.676221892	0.655905929
52	6	0.876423867	0.712979459	0.647726026
52	6	0.896028888	0.703248919	0.655905929
52	6	0.875384366	0.740006486	0.647726026
52	6	0.894989387	0.730275946	0.655905929
52	6	0.874344865	0.767033514	0.647726026
52	6	0.893949886	0.757302973	0.655905929
52	6	0.873305364	0.794060541	0.647726026
52	6	0.892910385	0.78433	0.655905929
52	6	0.872265863	0.821087568	0.647726026
52	6	0.891870884	0.811357027	0.655905929
52	6	0.871226362	0.848114595	0.647726026
52	6	0.890831383	0.838384054	0.655905929
52	6	0.870186861	0.875141622	0.647726026
52	6	0.889791881	0.865411081	0.655905929
52	6	0.86914736	0.902168649	0.647726026
52	6	0.88875238	0.892438108	0.655905929
52	6	0.868107859	0.929195676	0.647726026
52	6	0.887712879	0.919465135	0.655905929
52	6	0.867068358	0.956222703	0.647726026
52	6	0.886673378	0.946492162	0.655905929
52	6	0.866028857	0.98324973	0.647726026
52	6	0.885633877	0.973519189	0.655905929
52	6	0.864989356	0.010276757	0.647726026
52	6	0.884594376	0.000546216	0.655905929
52	6	0.863949854	0.037303784	0.647726026
52	6	0.883554875	0.027573243	0.655905929
52	6	0.862910353	0.064330811	0.647726026
52	6	0.882515374	0.05460027	0.655905929
52	6	0.861870852	0.091357838	0.647726026
52	6	0.881475873	0.081627297	0.655905929
52	6	0.860831351	0.118384865	0.647726026
52	6	0.880436372	0.108654324	0.655905929
52	6	0.85979185	0.145411892	0.647726026
52	6	0.879396871	0.135681351	0.655905929
52	6	0.858752349	0.172438919	0.647726026
52	6	0.87835737	0.162708378	0.655905929
52	6	0.857712848	0.199465946	0.647726026
52	6	0.877317869	0.189735405	0.655905929
52	6	0.856673347	0.226492973	0.647726026
52	6	0.876278368	0.216762432	0.655905929
52	6	0.855633846	0.25352	0.647726026
52	6	0.875238867	0.243789459	0.655905929
52	6	0.854594345	0.280547027	0.647726026
52	6	0.874199366	0.270816486	0.655905929
52	6	0.853554844	0.307574054	0.647726026
52	6	0.873159865	0.297843514	0.655905929
52	6	0.852515343	0.334601081	0.647726026
52	6	0.872120364	0.324870541	0.655905929
52	6	0.851475842	0.361628108	0.647726026
52	6	0.871080863	0.351897568	0.655905929
52	6	0.850436341	0.388655135	0.647726026
52	6	0.870041362	0.378924595	0.655905929
52	6	0.84939684	0.415682162	0.647726026
52	6	0.869001861	0.405951622	0.655905929
52	6	0.848357339	0.442709189	0.647726026
52	6	0.86796236	0.432978649	0.655905929
52	6	0.847317838	0.469736216	0.647726026
52	6	0.866922859	0.460005676	0.655905929
52	6	0.846278337	0.496763243	0.647726026
52	6	0.865883358	0.487032703	0.655905929
52	6	0.845238836	0.52379027	0.647726026
52	6	0.864843857	0.51405973	0.655905929
52	6	0.844199335	0.550817297	0.647726026
52	6	0.863804356	0.541086757	0.655905929
52	6	0.843159834	0.577844324	0.647726026
52	6	0.862764854	0.568113784	0.655905929
52	6	0.842120333	0.604871351	0.647726026
52	6	0.861725353	0.595140811	0.655905929
52	6	0.841080832	0.631898378	0.647726026
52	6	0.860685852	0.622167838	0.655905929
52	6	0.840041331	0.658925405	0.647726026
52	6	0.859646351	0.649194865	0.655905929
52	6	0.83900183	0.685952432	0.647726026
52	6	0.85860685	0.676221892	0.655905929
52	6	0.837962328	0.712979459	0.647726026
52	6	0.857567349	0.703248919	0.655905929
52	6	0.836922827	0.740006486	0.647726026
52	6	0.856527848	0.730275946	0.655905929
52	6	0.835883326	0.767033514	0.647726026
52	6	0.855488347	0.757302973	0.655905929
52	6	0.834843825	0.794060541	0.647726026
52	6	0.854448846	0.78433	0.655905929
52	6	0.833804324	0.821087568	0.647726026
52	6	0.853409345	0.811357027	0.655905929
52	6	0.832764823	0.848114595	0.647726026
52	6	0.852369844	0.838384054	0.655905929
52	6	0.831725322	0.875141622	0.647726026
52	6	0.851330343	0.865411081	0.655905929
52	6	0.830685821	0.902168649	0.647726026
52	6	0.850290842	0.892438108	0.655905929
52	6	0.82964632	0.929195676	0.647726026
52	6	0.849251341	0.919465135	0.655905929
52	6	0.828606819	0.956222703	0.647726026
52	6	0.84821184	0.946492162	0.655905929
52	6	0.827567318	0.98324973	0.647726026
52	6	0.847172339	0.973519189	0.655905929
52	6	0.826527817	0.010276757	0.647726026
52	6	0.846132838	0.000546216	0.655905929
52	6	0.825488316	0.037303784	0.647726026
52	6	0.845093337	0.027573243	0.655905929
52	6	0.824448815	0.064330811	0.647726026
52	6	0.844053836	0.05460027	0.655905929
52	6	0.823409314	0.091357838	0.647726026
52	6	0.843014335	0.081627297	0.655905929
52	6	0.822369813	0.118384865	0.647726026
52	6	0.841974834	0.108654324	0.655905929
52	6	0.821330312	0.145411892	0.647726026
52	6	0.840935333	0.135681351	0.655905929
52	6	0.820290811	0.172438919	0.647726026
52	6	0.839895832	0.162708378	0.655905929
52	6	0.81925131	0.199465946	0.647726026
52	6	0.838856331	0.189735405	0.655905929
52	6	0.818211809	0.226492973	0.647726026
52	6	0.83781683	0.216762432	0.655905929
52	6	0.817172308	0.25352	0.647726026
52	6	0.836777328	0.243789459	0.655905929
52	6	0.816132807	0.280547027	0.647726026
52	6	0.835737827	0.270816486	0.655905929
52	6	0.815093306	0.307574054	0.647726026
52	6	0.834698326	0.297843514	0.655905929
52	6	0.814053805	0.334601081	0.647726026
52	6	0.833658825	0.324870541	0.655905929
52	6	0.813014304	0.361628108	0.647726026
52	6	0.832619324	0.351897568	0.655905929
52	6	0.811974802	0.388655135	0.647726026
52	6	0.831579823	0.378924595	0.655905929
52	6	0.810935301	0.415682162	0.647726026
52	6	0.830540322	0.405951622	0.655905929
52	6	0.8098958	0.442709189	0.647726026
52	6	0.829500821	0.432978649	0.655905929
52	6	0.808856299	0.469736216	0.647726026
52	6	0.82846132	0.460005676	0.655905929
52	6	0.807816798	0.496763243	0.647726026
52	6	0.827421819	0.487032703	0.655905929
52	6	0.806777297	0.52379027	0.647726026
52	6	0.826382318	0.51405973	0.655905929
52	6	0.805737796	0.550817297	0.647726026
52	6	0.825342817	0.541086757	0.655905929
52	6	0.804698295	0.577844324	0.647726026
52	6	0.824303316	0.568113784	0.655905929
52	6	0.803658794	0.604871351	0.647726026
52	6	0.823263815	0.595140811	0.655905929
52	6	0.802619293	0.631898378	0.647726026
52	6	0.822224314	0.622167838	0.655905929
52	6	0.801579792	0.658925405	0.647726026
52	6	0.821184813	0.649194865	0.655905929
52	6	0.800540291	0.685952432	0.647726026
52	6	0.820145312	0.676221892	0.655905929
52	6	0.79950079	0.712979459	0.647726026
52	6	0.819105811	0.703248919	0.655905929
52	6	0.798461289	0.740006486	0.647726026
52	6	0.81806631	0.730275946	0.655905929
52	6	0.797421788	0.767033514	0.647726026
52	6	0.817026809	0.757302973	0.655905929
52	6	0.796382287	0.794060541	0.647726026
52	6	0.815987308	0.78433	0.655905929
52	6	0.795342786	0.821087568	0.647726026
52	6	0.814947807	0.811357027	0.655905929
52	6	0.794303285	0.848114595	0.647726026
52	6	0.813908306	0.838384054	0.655905929
52	6	0.793263784	0.875141622	0.647726026
52	6	0.812868805	0.865411081	0.655905929
52	6	0.792224283	0.902168649	0.647726026
52	6	0.811829304	0.892438108	0.655905929
52	6	0.791184782	0.929195676	0.647726026
52	6	0.810789802	0.919465135	0.655905929
52	6	0.790145281	0.956222703	0.647726026
52	6	0.809750301	0.946492162	0.655905929
52	6	0.78910578	0.98324973	0.647726026
52	6	0.8087108	0.973519189	0.655905929
52	6	0.788066279	0.010276757	0.647726026
52	6	0.807671299	0.000546216	0.655905929
52	6	0.787026778	0.037303784	0.647726026
52	6	0.806631798	0.027573243	0.655905929
52	6	0.785987277	0.064330811	0.647726026
52	6	0.805592297	0.05460027	0.655905929
52	6	0.784947775	0.091357838	0.647726026
52	6	0.804552796	0.081627297	0.655905929
52	6	0.783908274	0.118384865	0.647726026
52	6	0.803513295	0.108654324	0.655905929
52	6	0.782868773	0.145411892	0.647726026
52	6	0.802473794	0.135681351	0.655905929
52	6	0.781829272	0.172438919	0.647726026
52	6	0.801434293	0.162708378	0.655905929
52	6	0.780789771	0.199465946	0.647726026
52	6	0.800394792	0.189735405	0.655905929
52	6	0.77975027	0.226492973	0.647726026
52	6	0.799355291	0.216762432	0.655905929
52	6	0.778710769	0.25352	0.647726026
52	6	0.79831579	0.243789459	0.655905929
52	6	0.777671268	0.280547027	0.647726026
52	6	0.797276289	0.270816486	0.655905929
52	6	0.776631767	0.307574054	0.647726026
52	6	0.796236788	0.297843514	0.655905929
52	6	0.775592266	0.334601081	0.647726026
52	6	0.795197287	0.324870541	0.655905929
52	6	0.774552765	0.361628108	0.647726026
52	6	0.794157786	0.351897568	0.655905929
52	6	0.773513264	0.388655135	0.647726026
52	6	0.793118285	0.378924595	0.655905929
52	6	0.772473763	0.415682162	0.647726026
52	6	0.792078784	0.405951622	0.655905929
52	6	0.771434262	0.442709189	0.647726026
52	6	0.791039283	0.432978649	0.655905929
52	6	0.770394761	0.469736216	0.647726026
52	6	0.789999782	0.460005676	0.655905929
52	6	0.76935526	0.496763243	0.647726026
52	6	0.788960281	0.487032703	0.655905929
52	6	0.768315759	0.52379027	0.647726026
52	6	0.78792078	0.51405973	0.655905929
52	6	0.767276258	0.550817297	0.647726026
52	6	0.786881279	0.541086757	0.655905929
52	6	0.766236757	0.577844324	0.647726026
52	6	0.785841778	0.568113784	0.655905929
52	6	0.765197256	0.604871351	0.647726026
52	6	0.784802277	0.595140811	0.655905929
52	6	0.764157755	0.631898378	0.647726026
52	6	0.783762775	0.622167838	0.655905929
52	6	0.763118254	0.658925405	0.647726026
52	6	0.782723274	0.649194865	0.655905929
52	6	0.762078753	0.685952432	0.647726026
52	6	0.781683773	0.676221892	0.655905929
52	6	0.761039252	0.712979459	0.647726026
52	6	0.780644272	0.703248919	0.655905929
52	6	0.759999751	0.740006486	0.647726026
52	6	0.779604771	0.730275946	0.655905929
52	6	0.758960249	0.767033514	0.647726026
52	6	0.77856527	0.757302973	0.655905929
52	6	0.757920748	0.794060541	0.647726026
52	6	0.777525769	0.78433	0.655905929
52	6	0.756881247	0.821087568	0.647726026
52	6	0.776486268	0.811357027	0.655905929
52	6	0.755841746	0.848114595	0.647726026
52	6	0.775446767	0.838384054	0.655905929
52	6	0.754802245	0.875141622	0.647726026
52	6	0.774407266	0.865411081	0.655905929
52	6	0.753762744	0.902168649	0.647726026
52	6	0.773367765	0.892438108	0.655905929
52	6	0.752723243	0.929195676	0.647726026
52	6	0.772328264	0.919465135	0.655905929
52	6	0.751683742	0.956222703	0.647726026
52	6	0.771288763	0.946492162	0.655905929
52	6	0.750644241	0.98324973	0.647726026
52	6	0.770249262	0.973519189	0.655905929
52	6	0.74960474	0.010276757	0.647726026
52	6	0.769209761	0.000546216	0.655905929
52	6	0.748565239	0.037303784	0.647726026
52	6	0.76817026	0.027573243	0.655905929
52	6	0.747525738	0.064330811	0.647726026
52	6	0.767130759	0.05460027	0.655905929
52	6	0.746486237	0.091357838	0.647726026
52	6	0.766091258	0.081627297	0.655905929
52	6	0.745446736	0.118384865	0.647726026
52	6	0.765051757	0.108654324	0.655905929
52	6	0.744407235	0.145411892	0.647726026
52	6	0.764012256	0.135681351	0.655905929
52	6	0.743367734	0.172438919	0.647726026
52	6	0.762972755	0.162708378	0.655905929
52	6	0.742328233	0.199465946	0.647726026
52	6	0.761933254	0.189735405	0.655905929
52	6	0.741288732	0.226492973	0.647726026
52	6	0.760893753	0.216762432	0.655905929
52	6	0.740249231	0.25352	0.647726026
52	6	0.759854252	0.243789459	0.655905929
52	6	0.73920973	0.280547027	0.647726026
52	6	0.758814751	0.270816486	0.655905929
52	6	0.738170229	0.307574054	0.647726026
52	6	0.757775249	0.297843514	0.655905929
52	6	0.737130728	0.334601081	0.647726026
52	6	0.756735748	0.324870541	0.655905929
52	6	0.736091227	0.361628108	0.647726026
52	6	0.755696247	0.351897568	0.655905929
52	6	0.735051726	0.388655135	0.647726026
52	6	0.754656746	0.378924595	0.655905929
52	6	0.734012225	0.415682162	0.647726026
52	6	0.753617245	0.405951622	0.655905929
52	6	0.732972723	0.442709189	0.647726026
52	6	0.752577744	0.432978649	0.655905929
52	6	0.731933222	0.469736216	0.647726026
52	6	0.751538243	0.460005676	0.655905929
52	6	0.730893721	0.496763243	0.647726026
52	6	0.750498742	0.487032703	0.655905929
52	6	0.72985422	0.52379027	0.647726026
52	6	0.749459241	0.51405973	0.655905929
52	6	0.728814719	0.550817297	0.647726026
52	6	0.74841974	0.541086757	0.655905929
52	6	0.727775218	0.577844324	0.647726026
52	6	0.747380239	0.568113784	0.655905929
52	6	0.726735717	0.604871351	0.647726026
52	6	0.746340738	0.595140811	0.655905929
52	6	0.725696216	0.631898378	0.647726026
52	6	0.745301237	0.622167838	0.655905929
52	6	0.724656715	0.658925405	0.647726026
52	6	0.744261736	0.649194865	0.655905929
52	6	0.723617214	0.685952432	0.647726026
52	6	0.743222235	0.676221892	0.655905929
52	6	0.722577713	0.712979459	0.647726026
52	6	0.742182734	0.703248919	0.655905929
52	6	0.721538212	0.740006486	0.647726026
52	6	0.741143233	0.730275946	0.655905929
52	6	0.720498711	0.767033514	0.647726026
52	6	0.740103732	0.757302973	0.655905929
52	6	0.71945921	0.794060541	0.647726026
52	6	0.739064231	0.78433	0.655905929
52	6	0.718419709	0.821087568	0.647726026
52	6	0.73802473	0.811357027	0.655905929
52	6	0.717380208	0.848114595	0.647726026
52	6	0.736985229	0.838384054	0.655905929
52	6	0.716340707	0.875141622	0.647726026
52	6	0.735945728	0.865411081	0.655905929
52	6	0.715301206	0.902168649	0.647726026
52	6	0.734906227	0.892438108	0.655905929
52	6	0.714261705	0.929195676	0.647726026
52	6	0.733866726	0.919465135	0.655905929
52	6	0.713222204	0.956222703	0.647726026
52	6	0.732827225	0.946492162	0.655905929
52	6	0.712182703	0.98324973	0.647726026
52	6	0.731787723	0.973519189	0.655905929
52	6	0.711143202	0.010276757	0.647726026
52	6	0.730748222	0.000546216	0.655905929
52	6	0.710103701	0.037303784	0.647726026
52	6	0.729708721	0.027573243	0.655905929
52	6	0.7090642	0.064330811	0.647726026
52	6	0.72866922	0.05460027	0.655905929
52	6	0.708024699	0.091357838	0.647726026
52	6	0.727629719	0.081627297	0.655905929
52	6	0.706985198	0.118384865	0.647726026
52	6	0.726590218	0.108654324	0.655905929
52	6	0.705945696	0.145411892	0.647726026
52	6	0.725550717	0.135681351	0.655905929
52	6	0.704906195	0.172438919	0.647726026
52	6	0.724511216	0.162708378	0.655905929
52	6	0.703866694	0.199465946	0.647726026
52	6	0.723471715	0.189735405	0.655905929
52	6	0.702827193	0.226492973	0.647726026
52	6	0.722432214	0.216762432	0.655905929
52	6	0.701787692	0.25352	0.647726026
52	6	0.721392713	0.243789459	0.655905929
52	6	0.700748191	0.280547027	0.647726026
52	6	0.720353212	0.270816486	0.655905929
52	6	0.69970869	0.307574054	0.647726026
52	6	0.719313711	0.297843514	0.655905929
52	6	0.698669189	0.334601081	0.647726026
52	6	0.71827421	0.324870541	0.655905929
52	6	0.697629688	0.361628108	0.647726026
52	6	0.717234709	0.351897568	0.655905929
52	6	0.696590187	0.388655135	0.647726026
52	6	0.716195208	0.378924595	0.655905929
52	6	0.695550686	0.415682162	0.647726026
52	6	0.715155707	0.405951622	0.655905929
52	6	0.694511185	0.442709189	0.647726026
52	6	0.714116206	0.432978649	0.655905929
52	6	0.693471684	0.469736216	0.647726026
52	6	0.713076705	0.460005676	0.655905929
52	6	0.692432183	0.496763243	0.647726026
52	6	0.712037204	0.487032703	0.655905929
52	6	0.691392682	0.52379027	0.647726026
52	6	0.710997703	0.51405973	0.655905929
52	6	0.690353181	0.550817297	0.647726026
52	6	0.709958202	0.541086757	0.655905929
52	6	0.68931368	0.577844324	0.647726026
52	6	0.708918701	0.568113784	0.655905929
52	6	0.688274179	0.604871351	0.647726026
52	6	0.7078792	0.595140811	0.655905929
52	6	0.687234678	0.631898378	0.647726026
52	6	0.706839699	0.622167838	0.655905929
52	6	0.686195177	0.658925405	0.647726026
52	6	0.705800198	0.649194865	0.655905929
52	6	0.685155676	0.685952432	0.647726026
52	6	0.704760696	0.676221892	0.655905929
52	6	0.684116175	0.712979459	0.647726026
52	6	0.703721195	0.703248919	0.655905929
52	6	0.683076674	0.740006486	0.647726026
52	6	0.702681694	0.730275946	0.655905929
52	6	0.682037173	0.767033514	0.647726026
52	6	0.701642193	0.757302973	0.655905929
52	6	0.680997672	0.794060541	0.647726026
52	6	0.700602692	0.78433	0.655905929
52	6	0.67995817	0.821087568	0.647726026
52	6	0.699563191	0.811357027	0.655905929
52	6	0.678918669	0.848114595	0.647726026
52	6	0.69852369	0.838384054	0.655905929
52	6	0.677879168	0.875141622	0.647726026
52	6	0.697484189	0.865411081	0.655905929
52	6	0.676839667	0.902168649	0.647726026
52	6	0.696444688	0.892438108	0.655905929
52	6	0.675800166	0.929195676	0.647726026
52	6	0.695405187	0.919465135	0.655905929
52	6	0.674760665	0.956222703	0.647726026
52	6	0.694365686	0.946492162	0.655905929
52	6	0.673721164	0.98324973	0.647726026
52	6	0.693326185	0.973519189	0.655905929
52	6	0.672681663	0.010276757	0.647726026
52	6	0.692286684	0.000546216	0.655905929
52	6	0.671642162	0.037303784	0.647726026
52	6	0.691247183	0.027573243	0.655905929
52	6	0.670602661	0.064330811	0.647726026
52	6	0.690207682	0.05460027	0.655905929
52	6	0.66956316	0.091357838	0.647726026
52	6	0.689168181	0.081627297	0.655905929
52	6	0.668523659	0.118384865	0.647726026
52	6	0.68812868	0.108654324	0.655905929
52	6	0.667484158	0.145411892	0.647726026
52	6	0.687089179	0.135681351	0.655905929
52	6	0.666444657	0.172438919	0.647726026
52	6	0.686049678	0.162708378	0.655905929
52	6	0.665405156	0.199465946	0.647726026
52	6	0.685010177	0.189735405	0.655905929
52	6	0.664365655	0.226492973	0.647726026
52	6	0.683970676	0.216762432	0.655905929
52	6	0.663326154	0.25352	0.647726026
52	6	0.682931175	0.243789459	0.655905929
52	6	0.662286653	0.280547027	0.647726026
52	6	0.681891674	0.270816486	0.655905929
52	6	0.661247152	0.307574054	0.647726026
52	6	0.680852173	0.297843514	0.655905929
52	6	0.660207651	0.334601081	0.647726026
52	6	0.679812672	0.324870541	0.655905929
52	6	0.65916815	0.361628108	0.647726026
52	6	0.67877317	0.351897568	0.655905929
52	6	0.658128649	0.388655135	0.647726026
52	6	0.677733669	0.378924595	0.655905929
52	6	0.657089148	0.415682162	0.647726026
52	6	0.676694168	0.405951622	0.655905929
52	6	0.656049647	0.442709189	0.647726026
52	6	0.675654667	0.432978649	0.655905929
52	6	0.655010146	0.469736216	0.647726026
52	6	0.674615166	0.460005676	0.655905929
52	6	0.653970644	0.496763243	0.647726026
52	6	0.673575665	0.487032703	0.655905929
52	6	0.652931143	0.52379027	0.647726026
52	6	0.672536164	0.51405973	0.655905929
52	6	0.651891642	0.550817297	0.647726026
52	6	0.671496663	0.541086757	0.655905929
52	6	0.650852141	0.577844324	0.647726026
52	6	0.670457162	0.568113784	0.655905929
52	6	0.64981264	0.604871351	0.647726026
52	6	0.669417661	0.595140811	0.655905929
52	6	0.648773139	0.631898378	0.647726026
52	6	0.66837816	0.622167838	0.655905929
52	6	0.647733638	0.658925405	0.647726026
52	6	0.667338659	0.649194865	0.655905929
52	6	0.646694137	0.685952432	0.647726026
52	6	0.666299158	0.676221892	0.655905929
52	6	0.645654636	0.712979459	0.647726026
52	6	0.665259657	0.703248919	0.655905929
52	6	0.644615135	0.740006486	0.647726026
52	6	0.664220156	0.730275946	0.655905929
52	6	0.643575634	0.767033514	0.647726026
52	6	0.663180655	0.757302973	0.655905929
52	6	0.642536133	0.794060541	0.647726026
52	6	0.662141154	0.78433	0.655905929
52	6	0.641496632	0.821087568	0.647726026
52	6	0.661101653	0.811357027	0.655905929
52	6	0.640457131	0.848114595	0.647726026
52	6	0.660062152	0.838384054	0.655905929
52	6	0.63941763	0.875141622	0.647726026
52	6	0.659022651	0.865411081	0.655905929
52	6	0.638378129	0.902168649	0.647726026
52	6	0.65798315	0.892438108	0.655905929
52	6	0.637338628	0.929195676	0.647726026
52	6	0.656943649	0.919465135	0.655905929
52	6	0.636299127	0.956222703	0.647726026
52	6	0.655904148	0.946492162	0.655905929
52	6	0.635259626	0.98324973	0.647726026
52	6	0.654864647	0.973519189	0.655905929
52	6	0.634220125	0.010276757	0.647726026
52	6	0.653825146	0.000546216	0.655905929
52	6	0.633180624	0.037303784	0.647726026
52	6	0.652785644	0.027573243	0.655905929
52	6	0.632141123	0.064330811	0.647726026
52	6	0.651746143	0.05460027	0.655905929
52	6	0.631101622	0.091357838	0.647726026
52	6	0.650706642	0.081627297	0.655905929
52	6	0.630062121	0.118384865	0.647726026
52	6	0.649667141	0.108654324	0.655905929
52	6	0.62902262	0.145411892	0.647726026
52	6	0.64862764	0.135681351	0.655905929
52	6	0.627983119	0.172438919	0.647726026
52	6	0.647588139	0.162708378	0.655905929
52	6	0.626943617	0.199465946	0.647726026
52	6	0.646548638	0.189735405	0.655905929
52	6	0.625904116	0.226492973	0.647726026
52	6	0.645509137	0.216762432	0.655905929
52	6	0.624864615	0.25352	0.647726026
52	6	0.644469636	0.243789459	0.655905929
52	6	0.623825114	0.280547027	0.647726026
52	6	0.643430135	0.270816486	0.655905929
52	6	0.622785613	0.307574054	0.647726026
52	6	0.642390634	0.297843514	0.655905929
52	6	0.621746112	0.334601081	0.647726026
52	6	0.641351133	0.324870541	0.655905929
52	6	0.620706611	0.361628108	0.647726026
52	6	0.640311632	0.351897568	0.655905929
52	6	0.61966711	0.388655135	0.647726026
52	6	0.639272131	0.378924595	0.655905929
52	6	0.618627609	0.415682162	0.647726026
52	6	0.63823263	0.405951622	0.655905929
52	6	0.617588108	0.442709189	0.647726026
52	6	0.637193129	0.432978649	0.655905929
52	6	0.616548607	0.469736216	0.647726026
52	6	0.636153628	0.460005676	0.655905929
52	6	0.615509106	0.496763243	0.647726026
52	6	0.635114127	0.487032703	0.655905929
52	6	0.614469605	0.52379027	0.647726026
52	6	0.634074626	0.51405973	0.655905929
52	6	0.613430104	0.550817297	0.647726026
52	6	0.633035125	0.541086757	0.655905929
52	6	0.612390603	0.577844324	0.647726026
52	6	0.631995624	0.568113784	0.655905929
52	6	0.611351102	0.604871351	0.647726026
52	6	0.630956123	0.595140811	0.655905929
52	6	0.610311601	0.631898378	0.647726026
52	6	0.629916622	0.622167838	0.655905929
52	6	0.6092721	0.658925405	0.647726026
52	6	0.628877121	0.649194865	0.655905929
52	6	0.608232599	0.685952432	0.647726026
52	6	0.62783762	0.676221892	0.655905929
52	6	0.607193098	0.712979459	0.647726026
52	6	0.626798119	0.703248919	0.655905929
52	6	0.606153597	0.740006486	0.647726026
52	6	0.625758617	0.730275946	0.655905929
52	6	0.605114096	0.767033514	0.647726026
52	6	0.624719116	0.757302973	0.655905929
52	6	0.604074595	0.794060541	0.647726026
52	6	0.623679615	0.78433	0.655905929
52	6	0.603035094	0.821087568	0.647726026
52	6	0.622640114	0.811357027	0.655905929
52	6	0.601995593	0.848114595	0.647726026
52	6	0.621600613	0.838384054	0.655905929
52	6	0.600956091	0.875141622	0.647726026
52	6	0.620561112	0.865411081	0.655905929
52	6	0.59991659	0.902168649	0.647726026
52	6	0.619521611	0.892438108	0.655905929
52	6	0.598877089	0.929195676	0.647726026
52	6	0.61848211	0.919465135	0.655905929
52	6	0.597837588	0.956222703	0.647726026
52	6	0.617442609	0.946492162	0.655905929
52	6	0.596798087	0.98324973	0.647726026
52	6	0.616403108	0.973519189	0.655905929
52	6	0.595758586	0.010276757	0.647726026
52	6	0.615363607	0.000546216	0.655905929
52	6	0.594719085	0.037303784	0.647726026
52	6	0.614324106	0.027573243	0.655905929
52	6	0.593679584	0.064330811	0.647726026
52	6	0.613284605	0.05460027	0.655905929
52	6	0.592640083	0.091357838	0.647726026
52	6	0.612245104	0.081627297	0.655905929
52	6	0.591600582	0.118384865	0.647726026
52	6	0.611205603	0.108654324	0.655905929
52	6	0.590561081	0.145411892	0.647726026
52	6	0.610166102	0.135681351	0.655905929
52	6	0.58952158	0.172438919	0.647726026
52	6	0.609126601	0.162708378	0.655905929
52	6	0.588482079	0.199465946	0.647726026
52	6	0.6080871	0.189735405	0.655905929
52	6	0.587442578	0.226492973	0.647726026
52	6	0.607047599	0.216762432	0.655905929
52	6	0.586403077	0.25352	0.647726026
52	6	0.606008098	0.243789459	0.655905929
52	6	0.585363576	0.280547027	0.647726026
52	6	0.604968597	0.270816486	0.655905929
52	6	0.584324075	0.307574054	0.647726026
52	6	0.603929096	0.297843514	0.655905929
52	6	0.583284574	0.334601081	0.647726026
52	6	0.602889595	0.324870541	0.655905929
52	6	0.582245073	0.361628108	0.647726026
52	6	0.601850094	0.351897568	0.655905929
52	6	0.581205572	0.388655135	0.647726026
52	6	0.600810593	0.378924595	0.655905929
52	6	0.580166071	0.415682162	0.647726026
52	6	0.599771091	0.405951622	0.655905929
52	6	0.57912657	0.442709189	0.647726026
52	6	0.59873159	0.432978649	0.655905929
52	6	0.578087069	0.469736216	0.647726026
52	6	0.597692089	0.460005676	0.655905929
52	6	0.577047568	0.496763243	0.647726026
52	6	0.596652588	0.487032703	0.655905929
52	6	0.576008067	0.52379027	0.647726026
52	6	0.595613087	0.51405973	0.655905929
52	6	0.574968565	0.550817297	0.647726026
52	6	0.594573586	0.541086757	0.655905929
52	6	0.573929064	0.577844324	0.647726026
52	6	0.593534085	0.568113784	0.655905929
52	6	0.572889563	0.604871351	0.647726026
52	6	0.592494584	0.595140811	0.655905929
52	6	0.571850062	0.631898378	0.647726026
52	6	0.591455083	0.622167838	0.655905929
52	6	0.570810561	0.658925405	0.647726026
52	6	0.590415582	0.649194865	0.655905929
52	6	0.56977106	0.685952432	0.647726026
52	6	0.589376081	0.676221892	0.655905929
52	6	0.568731559	0.712979459	0.647726026
52	6	0.58833658	0.703248919	0.655905929
52	6	0.567692058	0.740006486	0.647726026
52	6	0.587297079	0.730275946	0.655905929
52	6	0.566652557	0.767033514	0.647726026
52	6	0.586257578	0.757302973	0.655905929
52	6	0.565613056	0.794060541	0.647726026
52	6	0.585218077	0.78433	0.655905929
52	6	0.564573555	0.821087568	0.647726026
52	6	0.584178576	0.811357027	0.655905929
52	6	0.563534054	0.848114595	0.647726026
52	6	0.583139075	0.838384054	0.655905929
52	6	0.562494553	0.875141622	0.647726026
52	6	0.582099574	0.865411081	0.655905929
52	6	0.561455052	0.902168649	0.647726026
52	6	0.581060073	0.892438108	0.655905929
52	6	0.560415551	0.929195676	0.647726026
52	6	0.580020572	0.919465135	0.655905929
52	6	0.55937605	0.956222703	0.647726026
52	6	0.578981071	0.946492162	0.655905929
52	6	0.558336549	0.98324973	0.647726026
52	6	0.57794157	0.973519189	0.655905929
52	6	0.557297048	0.010276757	0.647726026
52	6	0.576902069	0.000546216	0.655905929
52	6	0.556257547	0.037303784	0.647726026
52	6	0.575862568	0.027573243	0.655905929
52	6	0.555218046	0.064330811	0.647726026
52	6	0.574823067	0.05460027	0.655905929
52	6	0.554178545	0.091357838	0.647726026
52	6	0.573783565	0.081627297	0.655905929
52	6	0.553139044	0.118384865	0.647726026
52	6	0.572744064	0.108654324	0.655905929
52	6	0.552099543	0.145411892	0.647726026
52	6	0.571704563	0.135681351	0.655905929
52	6	0.551060042	0.172438919	0.647726026
52	6	0.570665062	0.162708378	0.655905929
52	6	0.550020541	0.199465946	0.647726026
52	6	0.569625561	0.189735405	0.655905929
52	6	0.54898104	0.226492973	0.647726026
52	6	0.56858606	0.216762432	0.655905929
52	6	0.547941538	0.25352	0.647726026
52	6	0.567546559	0.243789459	0.655905929
52	6	0.546902037	0.280547027	0.647726026
52	6	0.566507058	0.270816486	0.655905929
52	6	0.545862536	0.307574054	0.647726026
52	6	0.565467557	0.297843514	0.655905929
52	6	0.544823035	0.334601081	0.647726026
52	6	0.564428056	0.324870541	0.655905929
52	6	0.543783534	0.361628108	0.647726026
52	6	0.563388555	0.351897568	0.655905929
52	6	0.542744033	0.388655135	0.647726026
52	6	0.562349054	0.378924595	0.655905929
52	6	0.541704532	0.415682162	0.647726026
52	6	0.561309553	0.405951622	0.655905929
52	6	0.540665031	0.442709189	0.647726026
52	6	0.560270052	0.432978649	0.655905929
52	6	0.53962553	0.469736216	0.647726026
52	6	0.559230551	0.460005676	0.655905929
52	6	0.538586029	0.496763243	0.647726026
52	6	0.55819105	0.487032703	0.655905929
52	6	0.537546528	0.52379027	0.647726026
52	6	0.557151549	0.51405973	0.655905929
52	6	0.536507027	0.550817297	0.647726026
52	6	0.556112048	0.541086757	0.655905929
52	6	0.535467526	0.577844324	0.647726026
52	6	0.555072547	0.568113784	0.655905929
52	6	0.534428025	0.604871351	0.647726026
52	6	0.554033046	0.595140811	0.655905929
52	6	0.533388524	0.631898378	0.647726026
52	6	0.552993545	0.622167838	0.655905929
52	6	0.532349023	0.658925405	0.647726026
52	6	0.551954044	0.649194865	0.655905929
52	6	0.531309522	0.685952432	0.647726026
52	6	0.550914543	0.676221892	0.655905929
52	6	0.530270021	0.712979459	0.647726026
52	6	0.549875042	0.703248919	0.655905929
52	6	0.52923052	0.740006486	0.647726026
52	6	0.548835541	0.730275946	0.655905929
52	6	0.528191019	0.767033514	0.647726026
52	6	0.54779604	0.757302973	0.655905929
52	6	0.527151518	0.794060541	0.647726026
52	6	0.546756538	0.78433	0.655905929
52	6	0.526112017	0.821087568	0.647726026
52	6	0.545717037	0.811357027	0.655905929
52	6	0.525072516	0.848114595	0.647726026
52	6	0.544677536	0.838384054	0.655905929
52	6	0.524033015	0.875141622	0.647726026
52	6	0.543638035	0.865411081	0.655905929
52	6	0.522993514	0.902168649	0.647726026
52	6	0.542598534	0.892438108	0.655905929
52	6	0.521954012	0.929195676	0.647726026
52	6	0.541559033	0.919465135	0.655905929
52	6	0.520914511	0.956222703	0.647726026
52	6	0.540519532	0.946492162	0.655905929
52	6	0.51987501	0.98324973	0.647726026
52	6	0.539480031	0.973519189	0.655905929
52	6	0.518835509	0.010276757	0.647726026
52	6	0.53844053	0.000546216	0.655905929
52	6	0.517796008	0.037303784	0.647726026
52	6	0.537401029	0.027573243	0.655905929
52	6	0.516756507	0.064330811	0.647726026
52	6	0.536361528	0.05460027	0.655905929
52	6	0.515717006	0.091357838	0.647726026
52	6	0.535322027	0.081627297	0.655905929
52	6	0.514677505	0.118384865	0.647726026
52	6	0.534282526	0.108654324	0.655905929
52	6	0.513638004	0.145411892	0.647726026
52	6	0.533243025	0.135681351	0.655905929
52	6	0.512598503	0.172438919	0.647726026
52	6	0.532203524	0.162708378	0.655905929
52	6	0.511559002	0.199465946	0.647726026
52	6	0.531164023	0.189735405	0.655905929
52	6	0.510519501	0.226492973	0.647726026
52	6	0.530124522	0.216762432	0.655905929
52	6	0.50948	0.25352	0.647726026
52	6	0.529085021	0.243789459	0.655905929
52	6	0.508440499	0.280547027	0.647726026
52	6	0.52804552	0.270816486	0.655905929
52	6	0.507400998	0.307574054	0.647726026
52	6	0.527006019	0.297843514	0.655905929
52	6	0.506361497	0.334601081	0.647726026
52	6	0.525966518	0.324870541	0.655905929
52	6	0.505321996	0.361628108	0.647726026
52	6	0.524927017	0.351897568	0.655905929
52	6	0.504282495	0.388655135	0.647726026
52	6	0.523887516	0.378924595	0.655905929
52	6	0.503242994	0.415682162	0.647726026
52	6	0.522848015	0.405951622	0.655905929
52	6	0.502203493	0.442709189	0.647726026
52	6	0.521808514	0.432978649	0.655905929
52	6	0.501163992	0.469736216	0.647726026
52	6	0.520769012	0.460005676	0.655905929
52	6	0.500124491	0.496763243	0.647726026
52	6	0.519729511	0.487032703	0.655905929
52	6	0.49908499	0.52379027	0.647726026
52	6	0.51869001	0.51405973	0.655905929
52	6	0.498045489	0.550817297	0.647726026
52	6	0.517650509	0.541086757	0.655905929
52	6	0.497005988	0.577844324	0.647726026
52	6	0.516611008	0.568113784	0.655905929
52	6	0.495966486	0.604871351	0.647726026
52	6	0.515571507	0.595140811	0.655905929
52	6	0.494926985	0.631898378	0.647726026
52	6	0.514532006	0.622167838	0.655905929
52	6	0.493887484	0.658925405	0.647726026
52	6	0.513492505	0.649194865	0.655905929
52	6	0.492847983	0.685952432	0.647726026
52	6	0.512453004	0.676221892	0.655905929
52	6	0.491808482	0.712979459	0.647726026
52	6	0.511413503	0.703248919	0.655905929
52	6	0.490768981	0.740006486	0.647726026
52	6	0.510374002	0.730275946	0.655905929
52	6	0.48972948	0.767033514	0.647726026
52	6	0.509334501	0.757302973	0.655905929
52	6	0.488689979	0.794060541	0.647726026
52	6	0.508295	0.78433	0.655905929
52	6	0.487650478	0.821087568	0.647726026
52	6	0.507255499	0.811357027	0.655905929
52	6	0.486610977	0.848114595	0.647726026
52	6	0.506215998	0.838384054	0.655905929
52	6	0.485571476	0.875141622	0.647726026
52	6	0.505176497	0.865411081	0.655905929
52	6	0.484531975	0.902168649	0.647726026
52	6	0.504136996	0.892438108	0.655905929
52	6	0.483492474	0.929195676	0.647726026
52	6	0.503097495	0.919465135	0.655905929
52	6	0.482452973	0.956222703	0.647726026
52	6	0.502057994	0.946492162	0.655905929
52	6	0.481413472	0.98324973	0.647726026
52	6	0.501018493	0.973519189	0.655905929
52	6	0.480373971	0.010276757	0.647726026
52	6	0.499978992	0.000546216	0.655905929
52	6	0.47933447	0.037303784	0.647726026
52	6	0.498939491	0.027573243	0.655905929
52	6	0.478294969	0.064330811	0.647726026
52	6	0.49789999	0.05460027	0.655905929
52	6	0.477255468	0.091357838	0.647726026
52	6	0.496860489	0.081627297	0.655905929
52	6	0.476215967	0.118384865	0.647726026
52	6	0.495820988	0.108654324	0.655905929
52	6	0.475176466	0.145411892	0.647726026
52	6	0.494781486	0.135681351	0.655905929
52	6	0.474136965	0.172438919	0.647726026
52	6	0.493741985	0.162708378	0.655905929
52	6	0.473097464	0.199465946	0.647726026
52	6	0.492702484	0.189735405	0.655905929
52	6	0.472057963	0.226492973	0.647726026
52	6	0.491662983	0.216762432	0.655905929
52	6	0.471018462	0.25352	0.647726026
52	6	0.490623482	0.243789459	0.655905929
52	6	0.46997896	0.280547027	0.647726026
52	6	0.489583981	0.270816486	0.655905929
52	6	0.468939459	0.307574054	0.647726026
52	6	0.48854448	0.297843514	0.655905929
52	6	0.467899958	0.334601081	0.647726026
52	6	0.487504979	0.324870541	0.655905929
52	6	0.466860457	0.361628108	0.647726026
52	6	0.486465478	0.351897568	0.655905929
52	6	0.465820956	0.388655135	0.647726026
52	6	0.485425977	0.378924595	0.655905929
52	6	0.464781455	0.415682162	0.647726026
52	6	0.484386476	0.405951622	0.655905929
52	6	0.463741954	0.442709189	0.647726026
52	6	0.483346975	0.432978649	0.655905929
52	6	0.462702453	0.469736216	0.647726026
52	6	0.482307474	0.460005676	0.655905929
52	6	0.461662952	0.496763243	0.647726026
52	6	0.481267973	0.487032703	0.655905929
52	6	0.460623451	0.52379027	0.647726026
52	6	0.480228472	0.51405973	0.655905929
52	6	0.45958395	0.550817297	0.647726026
52	6	0.479188971	0.541086757	0.655905929
52	6	0.458544449	0.577844324	0.647726026
52	6	0.47814947	0.568113784	0.655905929
52	6	0.457504948	0.604871351	0.647726026
52	6	0.477109969	0.595140811	0.655905929
52	6	0.456465447	0.631898378	0.647726026
52	6	0.476070468	0.622167838	0.655905929
52	6	0.455425946	0.658925405	0.647726026
52	6	0.475030967	0.649194865	0.655905929
52	6	0.454386445	0.685952432	0.647726026
52	6	0.473991466	0.676221892	0.655905929
52	6	0.453346944	0.712979459	0.647726026
52	6	0.472951965	0.703248919	0.655905929
52	6	0.452307443	0.740006486	0.647726026
52	6	0.471912464	0.730275946	0.655905929
52	6	0.451267942	0.767033514	0.647726026
52	6	0.470872963	0.757302973	0.655905929
52	6	0.450228441	0.794060541	0.647726026
52	6	0.469833462	0.78433	0.655905929
52	6	0.44918894	0.821087568	0.647726026
52	6	0.46879396	0.811357027	0.655905929
52	6	0.448149439	0.848114595	0.647726026
52	6	0.467754459	0.838384054	0.655905929
52	6	0.447109938	0.875141622	0.647726026
52	6	0.466714958	0.865411081	0.655905929
52	6	0.446070437	0.902168649	0.647726026
52	6	0.465675457	0.892438108	0.655905929
52	6	0.445030936	0.929195676	0.647726026
52	6	0.464635956	0.919465135	0.655905929
52	6	0.443991435	0.956222703	0.647726026
52	6	0.463596455	0.946492162	0.655905929
52	6	0.442951933	0.98324973	0.647726026
52	6	0.462556954	0.973519189	0.655905929
52	6	0.441912432	0.010276757	0.647726026
52	6	0.461517453	0.000546216	0.655905929
52	6	0.440872931	0.037303784	0.647726026
52	6	0.460477952	0.027573243	0.655905929
52	6	0.43983343	0.064330811	0.647726026
52	6	0.459438451	0.05460027	0.655905929
52	6	0.438793929	0.091357838	0.647726026
52	6	0.45839895	0.081627297	0.655905929
52	6	0.437754428	0.118384865	0.647726026
52	6	0.457359449	0.108654324	0.655905929
52	6	0.436714927	0.145411892	0.647726026
52	6	0.456319948	0.135681351	0.655905929
52	6	0.435675426	0.172438919	0.647726026
52	6	0.455280447	0.162708378	0.655905929
52	6	0.434635925	0.199465946	0.647726026
52	6	0.454240946	0.189735405	0.655905929
52	6	0.433596424	0.226492973	0.647726026
52	6	0.453201445	0.216762432	0.655905929
52	6	0.432556923	0.25352	0.647726026
52	6	0.452161944	0.243789459	0.655905929
52	6	0.431517422	0.280547027	0.647726026
52	6	0.451122443	0.270816486	0.655905929
52	6	0.430477921	0.307574054	0.647726026
52	6	0.450082942	0.297843514	0.655905929
52	6	0.42943842	0.334601081	0.647726026
52	6	0.449043441	0.324870541	0.655905929
52	6	0.428398919	0.361628108	0.647726026
52	6	0.44800394	0.351897568	0.655905929
52	6	0.427359418	0.388655135	0.647726026
52	6	0.446964439	0.378924595	0.655905929
52	6	0.426319917	0.415682162	0.647726026
52	6	0.445924938	0.405951622	0.655905929
52	6	0.425280416	0.442709189	0.647726026
52	6	0.444885437	0.432978649	0.655905929
52	6	0.424240915	0.469736216	0.647726026
52	6	0.443845936	0.460005676	0.655905929
52	6	0.423201414	0.496763243	0.647726026
52	6	0.442806435	0.487032703	0.655905929
52	6	0.422161913	0.52379027	0.647726026
52	6	0.441766933	0.51405973	0.655905929
52	6	0.421122412	0.550817297	0.647726026
52	6	0.440727432	0.541086757	0.655905929
52	6	0.420082911	0.577844324	0.647726026
52	6	0.439687931	0.568113784	0.655905929
52	6	0.41904341	0.604871351	0.647726026
52	6	0.43864843	0.595140811	0.655905929
52	6	0.418003909	0.631898378	0.647726026
52	6	0.437608929	0.622167838	0.655905929
52	6	0.416964407	0.658925405	0.647726026
52	6	0.436569428	0.649194865	0.655905929
52	6	0.415924906	0.685952432	0.647726026
52	6	0.435529927	0.676221892	0.655905929
52	6	0.414885405	0.712979459	0.647726026
52	6	0.434490426	0.703248919	0.655905929
52	6	0.413845904	0.740006486	0.647726026
52	6	0.433450925	0.730275946	0.655905929
52	6	0.412806403	0.767033514	0.647726026
52	6	0.432411424	0.757302973	0.655905929
52	6	0.411766902	0.794060541	0.647726026
52	6	0.431371923	0.78433	0.655905929
52	6	0.410727401	0.821087568	0.647726026
52	6	0.430332422	0.811357027	0.655905929
52	6	0.4096879	0.848114595	0.647726026
52	6	0.429292921	0.838384054	0.655905929
52	6	0.408648399	0.875141622	0.647726026
52	6	0.42825342	0.865411081	0.655905929
52	6	0.407608898	0.902168649	0.647726026
52	6	0.427213919	0.892438108	0.655905929
52	6	0.406569397	0.929195676	0.647726026
52	6	0.426174418	0.919465135	0.655905929
52	6	0.405529896	0.956222703	0.647726026
52	6	0.425134917	0.946492162	0.655905929
52	6	0.404490395	0.98324973	0.647726026
52	6	0.424095416	0.973519189	0.655905929
52	6	0.403450894	0.010276757	0.647726026
52	6	0.423055915	0.000546216	0.655905929
52	6	0.402411393	0.037303784	0.647726026
52	6	0.422016414	0.027573243	0.655905929
52	6	0.401371892	0.064330811	0.647726026
52	6	0.420976913	0.05460027	0.655905929
52	6	0.400332391	0.091357838	0.647726026
52	6	0.419937412	0.081627297	0.655905929
52	6	0.39929289	0.118384865	0.647726026
52	6	0.418897911	0.108654324	0.655905929
52	6	0.398253389	0.145411892	0.647726026
52	6	0.41785841	0.135681351	0.655905929
52	6	0.397213888	0.172438919	0.647726026
52	6	0.416818909	0.162708378	0.655905929
52	6	0.396174387	0.199465946	0.647726026
52	6	0.415779407	0.189735405	0.655905929
52	6	0.395134886	0.226492973	0.647726026
52	6	0.414739906	0.216762432	0.655905929
52	6	0.394095385	0.25352	0.647726026
52	6	0.413700405	0.243789459	0.655905929
52	6	0.393055884	0.280547027	0.647726026
52	6	0.412660904	0.270816486	0.655905929
52	6	0.392016383	0.307574054	0.647726026
52	6	0.411621403	0.297843514	0.655905929
52	6	0.390976881	0.334601081	0.647726026
52	6	0.410581902	0.324870541	0.655905929
52	6	0.38993738	0.361628108	0.647726026
52	6	0.409542401	0.351897568	0.655905929
52	6	0.388897879	0.388655135	0.647726026
52	6	0.4085029	0.378924595	0.655905929
52	6	0.387858378	0.415682162	0.647726026
52	6	0.407463399	0.405951622	0.655905929
52	6	0.386818877	0.442709189	0.647726026
52	6	0.406423898	0.432978649	0.655905929
52	6	0.385779376	0.469736216	0.647726026
52	6	0.405384397	0.460005676	0.655905929
52	6	0.384739875	0.496763243	0.647726026
52	6	0.404344896	0.487032703	0.655905929
52	6	0.383700374	0.52379027	0.647726026
52	6	0.403305395	0.51405973	0.655905929
52	6	0.382660873	0.550817297	0.647726026
52	6	0.402265894	0.541086757	0.655905929
52	6	0.381621372	0.577844324	0.647726026
52	6	0.401226393	0.568113784	0.655905929
52	6	0.380581871	0.604871351	0.647726026
52	6	0.400186892	0.595140811	0.655905929
52	6	0.37954237	0.631898378	0.647726026
52	6	0.399147391	0.622167838	0.655905929
52	6	0.378502869	0.658925405	0.647726026
52	6	0.39810789	0.649194865	0.655905929
52	6	0.377463368	0.685952432	0.647726026
52	6	0.397068389	0.676221892	0.655905929
52	6	0.376423867	0.712979459	0.647726026
52	6	0.396028888	0.703248919	0.655905929
52	6	0.375384366	0.740006486	0.647726026
52	6	0.394989387	0.730275946	0.655905929
52	6	0.374344865	0.767033514	0.647726026
52	6	0.393949886	0.757302973	0.655905929
52	6	0.373305364	0.794060541	0.647726026
52	6	0.392910385	0.78433	0.655905929
52	6	0.372265863	0.821087568	0.647726026
52	6	0.391870884	0.811357027	0.655905929
52	6	0.371226362	0.848114595	0.647726026
52	6	0.390831383	0.838384054	0.655905929
52	6	0.370186861	0.875141622	0.647726026
52	6	0.389791881	0.865411081	0.655905929
52	6	0.36914736	0.902168649	0.647726026
52	6	0.38875238	0.892438108	0.655905929
52	6	0.368107859	0.929195676	0.647726026
52	6	0.387712879	0.919465135	0.655905929
52	6	0.367068358	0.956222703	0.647726026
52	6	0.386673378	0.946492162	0.655905929
52	6	0.366028857	0.98324973	0.647726026
52	6	0.385633877	0.973519189	0.655905929
52	6	0.364989356	0.010276757	0.647726026
52	6	0.384594376	0.000546216	0.655905929
52	6	0.363949854	0.037303784	0.647726026
52	6	0.383554875	0.027573243	0.655905929
52	6	0.362910353	0.064330811	0.647726026
52	6	0.382515374	0.05460027	0.655905929
52	6	0.361870852	0.091357838	0.647726026
52	6	0.381475873	0.081627297	0.655905929
52	6	0.360831351	0.118384865	0.647726026
52	6	0.380436372	0.108654324	0.655905929
52	6	0.35979185	0.145411892	0.647726026
52	6	0.379396871	0.135681351	0.655905929
52	6	0.358752349	0.172438919	0.647726026
52	6	0.37835737	0.162708378	0.655905929
52	6	0.357712848	0.199465946	0.647726026
52	6	0.377317869	0.189735405	0.655905929
52	6	0.356673347	0.226492973	0.647726026
52	6	0.376278368	0.216762432	0.655905929
52	6	0.355633846	0.25352	0.647726026
52	6	0.375238867	0.243789459	0.655905929
52	6	0.354594345	0.280547027	0.647726026
52	6	0.374199366	0.270816486	0.655905929
52	6	0.353554844	0.307574054	0.647726026
52	6	0.373159865	0.297843514	0.655905929
52	6	0.352515343	0.334601081	0.647726026
52	6	0.372120364	0.324870541	0.655905929
52	6	0.351475842	0.361628108	0.647726026
52	6	0.371080863	0.351897568	0.655905929
52	6	0.350436341	0.388655135	0.647726026
52	6	0.370041362	0.378924595	0.655905929
52	6	0.34939684	0.415682162	0.647726026
52	6	0.369001861	0.405951622	0.655905929
52	6	0.348357339	0.442709189	0.647726026
52	6	0.36796236	0.432978649	0.655905929
52	6	0.347317838	0.469736216	0.647726026
52	6	0.366922859	0.460005676	0.655905929
52	6	0.346278337	0.496763243	0.647726026
52	6	0.365883358	0.487032703	0.655905929
52	6	0.345238836	0.52379027	0.647726026
52	6	0.364843857	0.51405973	0.655905929
52	6	0.344199335	0.550817297	0.647726026
52	6	0.363804356	0.541086757	0.655905929
52	6	0.343159834	0.577844324	0.647726026
52	6	0.362764854	0.568113784	0.655905929
52	6	0.342120333	0.604871351	0.647726026
52	6	0.361725353	0.595140811	0.655905929
52	6	0.341080832	0.631898378	0.647726026
52	6	0.360685852	0.622167838	0.655905929
52	6	0.340041331	0.658925405	0.647726026
52	6	0.359646351	0.649194865	0.655905929
52	6	0.33900183	0.685952432	0.647726026
52	6	0.35860685	0.676221892	0.655905929
52	6	0.337962328	0.712979459	0.647726026
52	6	0.357567349	0.703248919	0.655905929
52	6	0.336922827	0.740006486	0.647726026
52	6	0.356527848	0.730275946	0.655905929
52	6	0.335883326	0.767033514	0.647726026
52	6	0.355488347	0.757302973	0.655905929
52	6	0.334843825	0.794060541	0.647726026
52	6	0.354448846	0.78433	0.655905929
52	6	0.333804324	0.821087568	0.647726026
52	6	0.353409345	0.811357027	0.655905929
52	6	0.332764823	0.848114595	0.647726026
52	6	0.352369844	0.838384054	0.655905929
52	6	0.331725322	0.875141622	0.647726026
52	6	0.351330343	0.865411081	0.655905929
52	6	0.330685821	0.902168649	0.647726026
52	6	0.350290842	0.892438108	0.655905929
52	6	0.32964632	0.929195676	0.647726026
52	6	0.349251341	0.919465135	0.655905929
52	6	0.328606819	0.956222703	0.647726026
52	6	0.34821184	0.946492162	0.655905929
52	6	0.327567318	0.98324973	0.647726026
52	6	0.347172339	0.973519189	0.655905929
52	6	0.326527817	0.010276757	0.647726026
52	6	0.346132838	0.000546216	0.655905929
52	6	0.325488316	0.037303784	0.647726026
52	6	0.345093337	0.027573243	0.655905929
52	6	0.324448815	0.064330811	0.647726026
52	6	0.344053836	0.05460027	0.655905929
52	6	0.323409314	0.091357838	0.647726026
52	6	0.343014335	0.081627297	0.655905929
52	6	0.322369813	0.118384865	0.647726026
52	6	0.341974834	0.108654324	0.655905929
52	6	0.321330312	0.145411892	0.647726026
52	6	0.340935333	0.135681351	0.655905929
52	6	0.320290811	0.172438919	0.647726026
52	6	0.339895832	0.162708378	0.655905929
52	6	0.31925131	0.199465946	0.647726026
52	6	0.338856331	0.189735405	0.655905929
52	6	0.318211809	0.226492973	0.647726026
52	6	0.33781683	0.216762432	0.655905929
52	6	0.317172308	0.25352	0.647726026
52	6	0.336777328	0.243789459	0.655905929
52	6	0.316132807	0.280547027	0.647726026
52	6	0.335737827	0.270816486	0.655905929
52	6	0.315093306	0.307574054	0.647726026
52	6	0.334698326	0.297843514	0.655905929
52	6	0.314053805	0.334601081	0.647726026
52	6	0.333658825	0.324870541	0.655905929
52	6	0.313014304	0.361628108	0.647726026
52	6	0.332619324	0.351897568	0.655905929
52	6	0.311974802	0.388655135	0.647726026
52	6	0.331579823	0.378924595	0.655905929
52	6	0.310935301	0.415682162	0.647726026
52	6	0.330540322	0.405951622	0.655905929
52	6	0.3098958	0.442709189	0.647726026
52	6	0.329500821	0.432978649	0.655905929
52	6	0.308856299	0.469736216	0.647726026
52	6	0.32846132	0.460005676	0.655905929
52	6	0.307816798	0.496763243	0.647726026
52	6	0.327421819	0.487032703	0.655905929
52	6	0.306777297	0.52379027	0.647726026
52	6	0.326382318	0.51405973	0.655905929
52	6	0.305737796	0.550817297	0.647726026
52	6	0.325342817	0.541086757	0.655905929
52	6	0.304698295	0.577844324	0.647726026
52	6	0.324303316	0.568113784	0.655905929
52	6	0.303658794	0.604871351	0.647726026
52	6	0.323263815	0.595140811	0.655905929
52	6	0.302619293	0.631898378	0.647726026
52	6	0.322224314	0.622167838	0.655905929
52	6	0.301579792	0.658925405	0.647726026
52	6	0.321184813	0.649194865	0.655905929
52	6	0.300540291	0.685952432	0.647726026
52	6	0.320145312	0.676221892	0.655905929
52	6	0.29950079	0.712979459	0.647726026
52	6	0.319105811	0.703248919	0.655905929
52	6	0.298461289	0.740006486	0.647726026
52	6	0.31806631	0.730275946	0.655905929
52	6	0.297421788	0.767033514	0.647726026
52	6	0.317026809	0.757302973	0.655905929
52	6	0.296382287	0.794060541	0.647726026
52	6	0.315987308	0.78433	0.655905929
52	6	0.295342786	0.821087568	0.647726026
52	6	0.314947807	0.811357027	0.655905929
52	6	0.294303285	0.848114595	0.647726026
52	6	0.313908306	0.838384054	0.655905929
52	6	0.293263784	0.875141622	0.647726026
52	6	0.312868805	0.865411081	0.655905929
52	6	0.292224283	0.902168649	0.647726026
52	6	0.311829304	0.892438108	0.655905929
52	6	0.291184782	0.929195676	0.647726026
52	6	0.310789802	0.919465135	0.655905929
52	6	0.290145281	0.956222703	0.647726026
52	6	0.309750301	0.946492162	0.655905929
52	6	0.28910578	0.98324973	0.647726026
52	6	0.3087108	0.973519189	0.655905929
52	6	0.288066279	0.010276757	0.647726026
52	6	0.307671299	0.000546216	0.655905929
52	6	0.287026778	0.037303784	0.647726026
52	6	0.306631798	0.027573243	0.655905929
52	6	0.285987277	0.064330811	0.647726026
52	6	0.305592297	0.05460027	0.655905929
52	6	0.284947775	0.091357838	0.647726026
52	6	0.304552796	0.081627297	0.655905929
52	6	0.283908274	0.118384865	0.647726026
52	6	0.303513295	0.108654324	0.655905929
52	6	0.282868773	0.145411892	0.647726026
52	6	0.302473794	0.135681351	0.655905929
52	6	0.281829272	0.172438919	0.647726026
52	6	0.301434293	0.162708378	0.655905929
52	6	0.280789771	0.199465946	0.647726026
52	6	0.300394792	0.189735405	0.655905929
52	6	0.27975027	0.226492973	0.647726026
52	6	0.299355291	0.216762432	0.655905929
52	6	0.278710769	0.25352	0.647726026
52	6	0.29831579	0.243789459	0.655905929
52	6	0.277671268	0.280547027	0.647726026
52	6	0.297276289	0.270816486	0.655905929
52	6	0.276631767	0.307574054	0.647726026
52	6	0.296236788	0.297843514	0.655905929
52	6	0.275592266	0.334601081	0.647726026
52	6	0.295197287	0.324870541	0.655905929
52	6	0.274552765	0.361628108	0.647726026
52	6	0.294157786	0.351897568	0.655905929
52	6	0.273513264	0.388655135	0.647726026
52	6	0.293118285	0.378924595	0.655905929
52	6	0.272473763	0.415682162	0.647726026
52	6	0.292078784	0.405951622	0.655905929
52	6	0.271434262	0.442709189	0.647726026
52	6	0.291039283	0.432978649	0.655905929
52	6	0.270394761	0.469736216	0.647726026
52	6	0.289999782	0.460005676	0.655905929
52	6	0.26935526	0.496763243	0.647726026
52	6	0.288960281	0.487032703	0.655905929
52	6	0.268315759	0.52379027	0.647726026
52	6	0.28792078	0.51405973	0.655905929
52	6	0.267276258	0.550817297	0.647726026
52	6	0.286881279	0.541086757	0.655905929
52	6	0.266236757	0.577844324	0.647726026
52	6	0.285841778	0.568113784	0.655905929
52	6	0.265197256	0.604871351	0.647726026
52	6	0.284802277	0.595140811	0.655905929
52	6	0.264157755	0.631898378	0.647726026
52	6	0.283762775	0.622167838	0.655905929
52	6	0.263118254	0.658925405	0.647726026
52	6	0.282723274	0.649194865	0.655905929
52	6	0.262078753	0.685952432	0.647726026
52	6	0.281683773	0.676221892	0.655905929
52	6	0.261039252	0.712979459	0.647726026
52	6	0.280644272	0.703248919	0.655905929
52	6	0.259999751	0.740006486	0.647726026
52	6	0.279604771	0.730275946	0.655905929
52	6	0.258960249	0.767033514	0.647726026
52	6	0.27856527	0.757302973	0.655905929
52	6	0.257920748	0.794060541	0.647726026
52	6	0.277525769	0.78433	0.655905929
52	6	0.256881247	0.821087568	0.647726026
52	6	0.276486268	0.811357027	0.655905929
52	6	0.255841746	0.848114595	0.647726026
52	6	0.275446767	0.838384054	0.655905929
52	6	0.254802245	0.875141622	0.647726026
52	6	0.274407266	0.865411081	0.655905929
52	6	0.253762744	0.902168649	0.647726026
52	6	0.273367765	0.892438108	0.655905929
52	6	0.252723243	0.929195676	0.647726026
52	6	0.272328264	0.919465135	0.655905929
52	6	0.251683742	0.956222703	0.647726026
52	6	0.271288763	0.946492162	0.655905929
52	6	0.250644241	0.98324973	0.647726026
52	6	0.270249262	0.973519189	0.655905929
52	6	0.24960474	0.010276757	0.647726026
52	6	0.269209761	0.000546216	0.655905929
52	6	0.248565239	0.037303784	0.647726026
52	6	0.26817026	0.027573243	0.655905929
52	6	0.247525738	0.064330811	0.647726026
52	6	0.267130759	0.05460027	0.655905929
52	6	0.246486237	0.091357838	0.647726026
52	6	0.266091258	0.081627297	0.655905929
52	6	0.245446736	0.118384865	0.647726026
52	6	0.265051757	0.108654324	0.655905929
52	6	0.244407235	0.145411892	0.647726026
52	6	0.264012256	0.135681351	0.655905929
52	6	0.243367734	0.172438919	0.647726026
52	6	0.262972755	0.162708378	0.655905929
52	6	0.242328233	0.199465946	0.647726026
52	6	0.261933254	0.189735405	0.655905929
52	6	0.241288732	0.226492973	0.647726026
52	6	0.260893753	0.216762432	0.655905929
52	6	0.240249231	0.25352	0.647726026
52	6	0.259854252	0.243789459	0.655905929
52	6	0.23920973	0.280547027	0.647726026
52	6	0.258814751	0.270816486	0.655905929
52	6	0.238170229	0.307574054	0.647726026
52	6	0.257775249	0.297843514	0.655905929
52	6	0.237130728	0.334601081	0.647726026
52	6	0.256735748	0.324870541	0.655905929
52	6	0.236091227	0.361628108	0.647726026
52	6	0.255696247	0.351897568	0.655905929
52	6	0.235051726	0.388655135	0.647726026
52	6	0.254656746	0.378924595	0.655905929
52	6	0.234012225	0.415682162	0.647726026
52	6	0.253617245	0.405951622	0.655905929
52	6	0.232972723	0.442709189	0.647726026
52	6	0.252577744	0.432978649	0.655905929
52	6	0.231933222	0.469736216	0.647726026
52	6	0.251538243	0.460005676	0.655905929
52	6	0.230893721	0.496763243	0.647726026
52	6	0.250498742	0.487032703	0.655905929
52	6	0.22985422	0.52379027	0.647726026
52	6	0.249459241	0.51405973	0.655905929
52	6	0.228814719	0.550817297	0.647726026
52	6	0.24841974	0.541086757	0.655905929
52	6	0.227775218	0.577844324	0.647726026
52	6	0.247380239	0.568113784	0.655905929
52	6	0.226735717	0.604871351	0.647726026
52	6	0.246340738	0.595140811	0.655905929
52	6	0.225696216	0.631898378	0.647726026
52	6	0.245301237	0.622167838	0.655905929
52	6	0.224656715	0.658925405	0.647726026
52	6	0.244261736	0.649194865	0.655905929
52	6	0.223617214	0.685952432	0.647726026
52	6	0.243222235	0.676221892	0.655905929
52	6	0.222577713	0.712979459	0.647726026
52	6	0.242182734	0.703248919	0.655905929
52	6	0.221538212	0.740006486	0.647726026
52	6	0.241143233	0.730275946	0.655905929
52	6	0.220498711	0.767033514	0.647726026
52	6	0.240103732	0.757302973	0.655905929
52	6	0.21945921	0.794060541	0.647726026
52	6	0.239064231	0.78433	0.655905929
52	6	0.218419709	0.821087568	0.647726026
52	6	0.23802473	0.811357027	0.655905929
52	6	0.217380208	0.848114595	0.647726026
52	6	0.236985229	0.838384054	0.655905929
52	6	0.216340707	0.875141622	0.647726026
52	6	0.235945728	0.865411081	0.655905929
52	6	0.215301206	0.902168649	0.647726026
52	6	0.234906227	0.892438108	0.655905929
52	6	0.214261705	0.929195676	0.647726026
52	6	0.233866726	0.919465135	0.655905929
52	6	0.213222204	0.956222703	0.647726026
52	6	0.232827225	0.946492162	0.655905929
52	6	0.212182703	0.98324973	0.647726026
52	6	0.231787723	0.973519189	0.655905929
52	6	0.211143202	0.010276757	0.647726026
52	6	0.230748222	0.000546216	0.655905929
52	6	0.210103701	0.037303784	0.647726026
52	6	0.229708721	0.027573243	0.655905929
52	6	0.2090642	0.064330811	0.647726026
52	6	0.22866922	0.05460027	0.655905929
52	6	0.208024699	0.091357838	0.647726026
52	6	0.227629719	0.081627297	0.655905929
52	6	0.206985198	0.118384865	0.647726026
52	6	0.226590218	0.108654324	0.655905929
52	6	0.205945696	0.145411892	0.647726026
52	6	0.225550717	0.135681351	0.655905929
52	6	0.204906195	0.172438919	0.647726026
52	6	0.224511216	0.162708378	0.655905929
52	6	0.203866694	0.199465946	0.647726026
52	6	0.223471715	0.189735405	0.655905929
52	6	0.202827193	0.226492973	0.647726026
52	6	0.222432214	0.216762432	0.655905929
52	6	0.201787692	0.25352	0.647726026
52	6	0.221392713	0.243789459	0.655905929
52	6	0.200748191	0.280547027	0.647726026
52	6	0.220353212	0.270816486	0.655905929
52	6	0.19970869	0.307574054	0.647726026
52	6	0.219313711	0.297843514	0.655905929
52	6	0.198669189	0.334601081	0.647726026
52	6	0.21827421	0.324870541	0.655905929
52	6	0.197629688	0.361628108	0.647726026
52	6	0.217234709	0.351897568	0.655905929
52	6	0.196590187	0.388655135	0.647726026
52	6	0.216195208	0.378924595	0.655905929
52	6	0.195550686	0.415682162	0.647726026
52	6	0.215155707	0.405951622	0.655905929
52	6	0.194511185	0.442709189	0.647726026
52	6	0.214116206	0.432978649	0.655905929
52	6	0.193471684	0.469736216	0.647726026
52	6	0.213076705	0.460005676	0.655905929
52	6	0.192432183	0.496763243	0.647726026
52	6	0.212037204	0.487032703	0.655905929
52	6	0.191392682	0.52379027	0.647726026
52	6	0.210997703	0.51405973	0.655905929
52	6	0.190353181	0.550817297	0.647726026
52	6	0.209958202	0.541086757	0.655905929
52	6	0.18931368	0.577844324	0.647726026
52	6	0.208918701	0.568113784	0.655905929
52	6	0.188274179	0.604871351	0.647726026
52	6	0.2078792	0.595140811	0.655905929
52	6	0.187234678	0.631898378	0.647726026
52	6	0.206839699	0.622167838	0.655905929
52	6	0.186195177	0.658925405	0.647726026
52	6	0.205800198	0.649194865	0.655905929
52	6	0.185155676	0.685952432	0.647726026
52	6	0.204760696	0.676221892	0.655905929
52	6	0.184116175	0.712979459	0.647726026
52	6	0.203721195	0.703248919	0.655905929
52	6	0.183076674	0.740006486	0.647726026
52	6	0.202681694	0.730275946	0.655905929
52	6	0.182037173	0.767033514	0.647726026
52	6	0.201642193	0.757302973	0.655905929
52	6	0.180997672	0.794060541	0.647726026
52	6	0.200602692	0.78433	0.655905929
52	6	0.17995817	0.821087568	0.647726026
52	6	0.199563191	0.811357027	0.655905929
52	6	0.178918669	0.848114595	0.647726026
52	6	0.19852369	0.838384054	0.655905929
52	6	0.177879168	0.875141622	0.647726026
52	6	0.197484189	0.865411081	0.655905929
52	6	0.176839667	0.902168649	0.647726026
52	6	0.196444688	0.892438108	0.655905929
52	6	0.175800166	0.929195676	0.647726026
52	6	0.195405187	0.919465135	0.655905929
52	6	0.174760665	0.956222703	0.647726026
52	6	0.194365686	0.946492162	0.655905929
52	6	0.173721164	0.98324973	0.647726026
52	6	0.193326185	0.973519189	0.655905929
52	6	0.172681663	0.010276757	0.647726026
52	6	0.192286684	0.000546216	0.655905929
52	6	0.171642162	0.037303784	0.647726026
52	6	0.191247183	0.027573243	0.655905929
52	6	0.170602661	0.064330811	0.647726026
52	6	0.190207682	0.05460027	0.655905929
52	6	0.16956316	0.091357838	0.647726026
52	6	0.189168181	0.081627297	0.655905929
52	6	0.168523659	0.118384865	0.647726026
52	6	0.18812868	0.108654324	0.655905929
52	6	0.167484158	0.145411892	0.647726026
52	6	0.187089179	0.135681351	0.655905929
52	6	0.166444657	0.172438919	0.647726026
52	6	0.186049678	0.162708378	0.655905929
52	6	0.165405156	0.199465946	0.647726026
52	6	0.185010177	0.189735405	0.655905929
52	6	0.164365655	0.226492973	0.647726026
52	6	0.183970676	0.216762432	0.655905929
52	6	0.163326154	0.25352	0.647726026
52	6	0.182931175	0.243789459	0.655905929
52	6	0.162286653	0.280547027	0.647726026
52	6	0.181891674	0.270816486	0.655905929
52	6	0.161247152	0.307574054	0.647726026
52	6	0.180852173	0.297843514	0.655905929
52	6	0.160207651	0.334601081	0.647726026
52	6	0.179812672	0.324870541	0.655905929
52	6	0.15916815	0.361628108	0.647726026
52	6	0.17877317	0.351897568	0.655905929
52	6	0.158128649	0.388655135	0.647726026
52	6	0.177733669	0.378924595	0.655905929
52	6	0.157089148	0.415682162	0.647726026
52	6	0.176694168	0.405951622	0.655905929
52	6	0.156049647	0.442709189	0.647726026
52	6	0.175654667	0.432978649	0.655905929
52	6	0.155010146	0.469736216	0.647726026
52	6	0.174615166	0.460005676	0.655905929
52	6	0.153970644	0.496763243	0.647726026
52	6	0.173575665	0.487032703	0.655905929
52	6	0.152931143	0.52379027	0.647726026
52	6	0.172536164	0.51405973	0.655905929
52	6	0.151891642	0.550817297	0.647726026
52	6	0.171496663	0.541086757	0.655905929
52	6	0.150852141	0.577844324	0.647726026
52	6	0.170457162	0.568113784	0.655905929
52	6	0.14981264	0.604871351	0.647726026
52	6	0.169417661	0.595140811	0.655905929
52	6	0.148773139	0.631898378	0.647726026
52	6	0.16837816	0.622167838	0.655905929
52	6	0.147733638	0.658925405	0.647726026
52	6	0.167338659	0.649194865	0.655905929
52	6	0.146694137	0.685952432	0.647726026
52	6	0.166299158	0.676221892	0.655905929
52	6	0.145654636	0.712979459	0.647726026
52	6	0.165259657	0.703248919	0.655905929
52	6	0.144615135	0.740006486	0.647726026
52	6	0.164220156	0.730275946	0.655905929
52	6	0.143575634	0.767033514	0.647726026
52	6	0.163180655	0.757302973	0.655905929
52	6	0.142536133	0.794060541	0.647726026
52	6	0.162141154	0.78433	0.655905929
52	6	0.141496632	0.821087568	0.647726026
52	6	0.161101653	0.811357027	0.655905929
52	6	0.140457131	0.848114595	0.647726026
52	6	0.160062152	0.838384054	0.655905929
52	6	0.13941763	0.875141622	0.647726026
52	6	0.159022651	0.865411081	0.655905929
52	6	0.138378129	0.902168649	0.647726026
52	6	0.15798315	0.892438108	0.655905929
52	6	0.137338628	0.929195676	0.647726026
52	6	0.156943649	0.919465135	0.655905929
52	6	0.136299127	0.956222703	0.647726026
52	6	0.155904148	0.946492162	0.655905929
52	6	0.135259626	0.98324973	0.647726026
52	6	0.154864647	0.973519189	0.655905929
52	6	0.134220125	0.010276757	0.647726026
52	6	0.153825146	0.000546216	0.655905929
52	6	0.133180624	0.037303784	0.647726026
52	6	0.152785644	0.027573243	0.655905929
52	6	0.132141123	0.064330811	0.647726026
52	6	0.151746143	0.05460027	0.655905929
52	6	0.131101622	0.091357838	0.647726026
52	6	0.150706642	0.081627297	0.655905929
52	6	0.130062121	0.118384865	0.647726026
52	6	0.149667141	0.108654324	0.655905929
52	6	0.12902262	0.145411892	0.647726026
52	6	0.14862764	0.135681351	0.655905929
52	6	0.127983119	0.172438919	0.647726026
52	6	0.147588139	0.162708378	0.655905929
52	6	0.126943617	0.199465946	0.647726026
52	6	0.146548638	0.189735405	0.655905929
52	6	0.125904116	0.226492973	0.647726026
52	6	0.145509137	0.216762432	0.655905929
52	6	0.124864615	0.25352	0.647726026
52	6	0.144469636	0.243789459	0.655905929
52	6	0.123825114	0.280547027	0.647726026
52	6	0.143430135	0.270816486	0.655905929
52	6	0.122785613	0.307574054	0.647726026
52	6	0.142390634	0.297843514	0.655905929
52	6	0.121746112	0.334601081	0.647726026
52	6	0.141351133	0.324870541	0.655905929
52	6	0.120706611	0.361628108	0.647726026
52	6	0.140311632	0.351897568	0.655905929
52	6	0.11966711	0.388655135	0.647726026
52	6	0.139272131	0.378924595	0.655905929
52	6	0.118627609	0.415682162	0.647726026
52	6	0.13823263	0.405951622	0.655905929
52	6	0.117588108	0.442709189	0.647726026
52	6	0.137193129	0.432978649	0.655905929
52	6	0.116548607	0.469736216	0.647726026
52	6	0.136153628	0.460005676	0.655905929
52	6	0.115509106	0.496763243	0.647726026
52	6	0.135114127	0.487032703	0.655905929
52	6	0.114469605	0.52379027	0.647726026
52	6	0.134074626	0.51405973	0.655905929
52	6	0.113430104	0.550817297	0.647726026
52	6	0.133035125	0.541086757	0.655905929
52	6	0.112390603	0.577844324	0.647726026
52	6	0.131995624	0.568113784	0.655905929
52	6	0.111351102	0.604871351	0.647726026
52	6	0.130956123	0.595140811	0.655905929
52	6	0.110311601	0.631898378	0.647726026
52	6	0.129916622	0.622167838	0.655905929
52	6	0.1092721	0.658925405	0.647726026
52	6	0.128877121	0.649194865	0.655905929
52	6	0.108232599	0.685952432	0.647726026
52	6	0.12783762	0.676221892	0.655905929
52	6	0.107193098	0.712979459	0.647726026
52	6	0.126798119	0.703248919	0.655905929
52	6	0.106153597	0.740006486	0.647726026
52	6	0.125758617	0.730275946	0.655905929
52	6	0.105114096	0.767033514	0.647726026
52	6	0.124719116	0.757302973	0.655905929
52	6	0.104074595	0.794060541	0.647726026
52	6	0.123679615	0.78433	0.655905929
52	6	0.103035094	0.821087568	0.647726026
52	6	0.122640114	0.811357027	0.655905929
52	6	0.101995593	0.848114595	0.647726026
52	6	0.121600613	0.838384054	0.655905929
52	6	0.100956091	0.875141622	0.647726026
52	6	0.120561112	0.865411081	0.655905929
52	6	0.09991659	0.902168649	0.647726026
52	6	0.119521611	0.892438108	0.655905929
52	6	0.098877089	0.929195676	0.647726026
52	6	0.11848211	0.919465135	0.655905929
52	6	0.097837588	0.956222703	0.647726026
52	6	0.117442609	0.946492162	0.655905929
52	6	0.096798087	0.98324973	0.647726026
52	6	0.116403108	0.973519189	0.655905929
52	6	0.095758586	0.010276757	0.647726026
52	6	0.115363607	0.000546216	0.655905929
52	6	0.094719085	0.037303784	0.647726026
52	6	0.114324106	0.027573243	0.655905929
52	6	0.093679584	0.064330811	0.647726026
52	6	0.113284605	0.05460027	0.655905929
52	6	0.092640083	0.091357838	0.647726026
52	6	0.112245104	0.081627297	0.655905929
52	6	0.091600582	0.118384865	0.647726026
52	6	0.111205603	0.108654324	0.655905929
52	6	0.090561081	0.145411892	0.647726026
52	6	0.110166102	0.135681351	0.655905929
52	6	0.08952158	0.172438919	0.647726026
52	6	0.109126601	0.162708378	0.655905929
52	6	0.088482079	0.199465946	0.647726026
52	6	0.1080871	0.189735405	0.655905929
52	6	0.087442578	0.226492973	0.647726026
52	6	0.107047599	0.216762432	0.655905929
52	6	0.086403077	0.25352	0.647726026
52	6	0.106008098	0.243789459	0.655905929
52	6	0.085363576	0.280547027	0.647726026
52	6	0.104968597	0.270816486	0.655905929
52	6	0.084324075	0.307574054	0.647726026
52	6	0.103929096	0.297843514	0.655905929
52	6	0.083284574	0.334601081	0.647726026
52	6	0.102889595	0.324870541	0.655905929
52	6	0.082245073	0.361628108	0.647726026
52	6	0.101850094	0.351897568	0.655905929
52	6	0.081205572	0.388655135	0.647726026
52	6	0.100810593	0.378924595	0.655905929
52	6	0.080166071	0.415682162	0.647726026
52	6	0.099771091	0.405951622	0.655905929
52	6	0.07912657	0.442709189	0.647726026
52	6	0.09873159	0.432978649	0.655905929
52	6	0.078087069	0.469736216	0.647726026
52	6	0.097692089	0.460005676	0.655905929
52	6	0.077047568	0.496763243	0.647726026
52	6	0.096652588	0.487032703	0.655905929
52	6	0.076008067	0.52379027	0.647726026
52	6	0.095613087	0.51405973	0.655905929
52	6	0.074968565	0.550817297	0.647726026
52	6	0.094573586	0.541086757	0.655905929
52	6	0.073929064	0.577844324	0.647726026
52	6	0.093534085	0.568113784	0.655905929
52	6	0.072889563	0.604871351	0.647726026
52	6	0.092494584	0.595140811	0.655905929
52	6	0.071850062	0.631898378	0.647726026
52	6	0.091455083	0.622167838	0.655905929
52	6	0.070810561	0.658925405	0.647726026
52	6	0.090415582	0.649194865	0.655905929
52	6	0.06977106	0.685952432	0.647726026
52	6	0.089376081	0.676221892	0.655905929
52	6	0.068731559	0.712979459	0.647726026
52	6	0.08833658	0.703248919	0.655905929
52	6	0.067692058	0.740006486	0.647726026
52	6	0.087297079	0.730275946	0.655905929
52	6	0.066652557	0.767033514	0.647726026
52	6	0.086257578	0.757302973	0.655905929
52	6	0.065613056	0.794060541	0.647726026
52	6	0.085218077	0.78433	0.655905929
52	6	0.064573555	0.821087568	0.647726026
52	6	0.084178576	0.811357027	0.655905929
52	6	0.063534054	0.848114595	0.647726026
52	6	0.083139075	0.838384054	0.655905929
52	6	0.062494553	0.875141622	0.647726026
52	6	0.082099574	0.865411081	0.655905929
52	6	0.061455052	0.902168649	0.647726026
52	6	0.081060073	0.892438108	0.655905929
52	6	0.060415551	0.929195676	0.647726026
52	6	0.080020572	0.919465135	0.655905929
52	6	0.05937605	0.956222703	0.647726026
52	6	0.078981071	0.946492162	0.655905929
52	6	0.058336549	0.98324973	0.647726026
52	6	0.07794157	0.973519189	0.655905929
52	6	0.057297048	0.010276757	0.647726026
52	6	0.076902069	0.000546216	0.655905929
52	6	0.056257547	0.037303784	0.647726026
52	6	0.075862568	0.027573243	0.655905929
52	6	0.055218046	0.064330811	0.647726026
52	6	0.074823067	0.05460027	0.655905929
52	6	0.054178545	0.091357838	0.647726026
52	6	0.073783565	0.081627297	0.655905929
52	6	0.053139044	0.118384865	0.647726026
52	6	0.072744064	0.108654324	0.655905929
52	6	0.052099543	0.145411892	0.647726026
52	6	0.071704563	0.135681351	0.655905929
52	6	0.051060042	0.172438919	0.647726026
52	6	0.070665062	0.162708378	0.655905929
52	6	0.050020541	0.199465946	0.647726026
52	6	0.069625561	0.189735405	0.655905929
52	6	0.04898104	0.226492973	0.647726026
52	6	0.06858606	0.216762432	0.655905929
52	6	0.047941538	0.25352	0.647726026
52	6	0.067546559	0.243789459	0.655905929
52	6	0.046902037	0.280547027	0.647726026
52	6	0.066507058	0.270816486	0.655905929
52	6	0.045862536	0.307574054	0.647726026
52	6	0.065467557	0.297843514	0.655905929
52	6	0.044823035	0.334601081	0.647726026
52	6	0.064428056	0.324870541	0.655905929
52	6	0.043783534	0.361628108	0.647726026
52	6	0.063388555	0.351897568	0.655905929
52	6	0.042744033	0.388655135	0.647726026
52	6	0.062349054	0.378924595	0.655905929
52	6	0.041704532	0.415682162	0.647726026
52	6	0.061309553	0.405951622	0.655905929
52	6	0.040665031	0.442709189	0.647726026
52	6	0.060270052	0.432978649	0.655905929
52	6	0.03962553	0.469736216	0.647726026
52	6	0.059230551	0.460005676	0.655905929
52	6	0.038586029	0.496763243	0.647726026
52	6	0.05819105	0.487032703	0.655905929
52	6	0.037546528	0.52379027	0.647726026
52	6	0.057151549	0.51405973	0.655905929
52	6	0.036507027	0.550817297	0.647726026
52	6	0.056112048	0.541086757	0.655905929
52	6	0.035467526	0.577844324	0.647726026
52	6	0.055072547	0.568113784	0.655905929
52	6	0.034428025	0.604871351	0.647726026
52	6	0.054033046	0.595140811	0.655905929
52	6	0.033388524	0.631898378	0.647726026
52	6	0.052993545	0.622167838	0.655905929
52	6	0.032349023	0.658925405	0.647726026
52	6	0.051954044	0.649194865	0.655905929
52	6	0.031309522	0.685952432	0.647726026
52	6	0.050914543	0.676221892	0.655905929
52	6	0.030270021	0.712979459	0.647726026
52	6	0.049875042	0.703248919	0.655905929
52	6	0.02923052	0.740006486	0.647726026
52	6	0.048835541	0.730275946	0.655905929
52	6	0.028191019	0.767033514	0.647726026
52	6	0.04779604	0.757302973	0.655905929
52	6	0.027151518	0.794060541	0.647726026
52	6	0.046756538	0.78433	0.655905929
52	6	0.026112017	0.821087568	0.647726026
52	6	0.045717037	0.811357027	0.655905929
52	6	0.025072516	0.848114595	0.647726026
52	6	0.044677536	0.838384054	0.655905929
52	6	0.024033015	0.875141622	0.647726026
52	6	0.043638035	0.865411081	0.655905929
52	6	0.022993514	0.902168649	0.647726026
52	6	0.042598534	0.892438108	0.655905929
52	6	0.021954012	0.929195676	0.647726026
52	6	0.041559033	0.919465135	0.655905929
52	6	0.020914511	0.956222703	0.647726026
52	6	0.040519532	0.946492162	0.655905929
52	6	0.01987501	0.98324973	0.647726026
52	6	0.039480031	0.973519189	0.655905929
52	6	0.018835509	0.010276757	0.647726026
52	6	0.03844053	0.000546216	0.655905929
52	6	0.017796008	0.037303784	0.647726026
52	6	0.037401029	0.027573243	0.655905929
52	6	0.016756507	0.064330811	0.647726026
52	6	0.036361528	0.05460027	0.655905929
52	6	0.015717006	0.091357838	0.647726026
52	6	0.035322027	0.081627297	0.655905929
52	6	0.014677505	0.118384865	0.647726026
52	6	0.034282526	0.108654324	0.655905929
52	6	0.013638004	0.145411892	0.647726026
52	6	0.033243025	0.135681351	0.655905929
52	6	0.012598503	0.172438919	0.647726026
52	6	0.032203524	0.162708378	0.655905929
52	6	0.011559002	0.199465946	0.647726026
52	6	0.031164023	0.189735405	0.655905929
52	6	0.010519501	0.226492973	0.647726026
52	6	0.030124522	0.216762432	0.655905929
52	6	0.00948	0.25352	0.647726026
52	6	0.029085021	0.243789459	0.655905929
52	6	0.008440499	0.280547027	0.647726026
52	6	0.02804552	0.270816486	0.655905929
52	6	0.007400998	0.307574054	0.647726026
52	6	0.027006019	0.297843514	0.655905929
52	6	0.006361497	0.334601081	0.647726026
52	6	0.025966518	0.324870541	0.655905929
52	6	0.005321996	0.361628108	0.647726026
52	6	0.024927017	0.351897568	0.655905929
52	6	0.004282495	0.388655135	0.647726026
52	6	0.023887516	0.378924595	0.655905929
52	6	0.003242994	0.415682162	0.647726026
52	6	0.022848015	0.405951622	0.655905929
52	6	0.002203493	0.442709189	0.647726026
52	6	0.021808514	0.432978649	0.655905929
52	6	0.001163992	0.469736216	0.647726026
52	6	0.020769012	0.460005676	0.655905929
52	6	0.000124491	0.496763243	0.647726026
52	6	0.019729511	0.487032703	0.655905929
52	6	0.99908499	0.52379027	0.647726026
52	6	0.01869001	0.51405973	0.655905929
52	6	0.998045489	0.550817297	0.647726026
52	6	0.017650509	0.541086757	0.655905929
52	6	0.997005988	0.577844324	0.647726026
52	6	0.016611008	0.568113784	0.655905929
52	6	0.995966486	0.604871351	0.647726026
52	6	0.015571507	0.595140811	0.655905929
52	6	0.994926985	0.631898378	0.647726026
52	6	0.014532006	0.622167838	0.655905929
52	6	0.993887484	0.658925405	0.647726026
52	6	0.013492505	0.649194865	0.655905929
52	6	0.992847983	0.685952432	0.647726026
52	6	0.012453004	0.676221892	0.655905929
52	6	0.991808482	0.712979459	0.647726026
52	6	0.011413503	0.703248919	0.655905929
52	6	0.990768981	0.740006486	0.647726026
52	6	0.010374002	0.730275946	0.655905929
52	6	0.98972948	0.767033514	0.647726026
52	6	0.009334501	0.757302973	0.655905929
52	6	0.988689979	0.794060541	0.647726026
52	6	0.008295	0.78433	0.655905929
52	6	0.987650478	0.821087568	0.647726026
52	6	0.007255499	0.811357027	0.655905929
52	6	0.986610977	0.848114595	0.647726026
52	6	0.006215998	0.838384054	0.655905929
52	6	0.985571476	0.875141622	0.647726026
52	6	0.005176497	0.865411081	0.655905929
52	6	0.984531975	0.902168649	0.647726026
52	6	0.004136996	0.892438108	0.655905929
52	6	0.983492474	0.929195676	0.647726026
52	6	0.003097495	0.919465135	0.655905929
52	6	0.982452973	0.956222703	0.647726026
52	6	0.002057994	0.946492162	0.655905929
52	6	0.981413472	0.98324973	0.647726026
52	6	0.001018493	0.973519189	0.655905929
52	6	0.980373971	0.010276757	0.647726026
52	6	0.999978992	0.000546216	0.655905929
74	14	0.018478338	0.019563216	0.249372081
74	14	0.999761268	0.006207027	0.278244879
74	14	0.018844444	0.010044459	0.41635013
74	14	0.999094496	0.023543108	0.447580991
74	14	0.056939876	0.019563216	0.249372081
74	14	0.038222807	0.006207027	0.278244879
74	14	0.057305982	0.010044459	0.41635013
74	14	0.037556034	0.023543108	0.447580991
74	14	0.055900375	0.046590243	0.249372081
74	14	0.037183306	0.033234054	0.278244879
74	14	0.056266481	0.037071486	0.41635013
74	14	0.036516533	0.050570135	0.447580991
74	14	0.054860874	0.07361727	0.249372081
74	14	0.036143805	0.060261081	0.278244879
74	14	0.05522698	0.064098514	0.41635013
74	14	0.035477032	0.077597162	0.447580991
74	14	0.053821373	0.100644297	0.249372081
74	14	0.035104304	0.087288108	0.278244879
74	14	0.054187479	0.091125541	0.41635013
74	14	0.034437531	0.104624189	0.447580991
74	14	0.052781872	0.127671324	0.249372081
74	14	0.034064802	0.114315135	0.278244879
74	14	0.053147978	0.118152568	0.41635013
74	14	0.03339803	0.131651216	0.447580991
74	14	0.051742371	0.154698351	0.249372081
74	14	0.033025301	0.141342162	0.278244879
74	14	0.052108477	0.145179595	0.41635013
74	14	0.032358529	0.158678243	0.447580991
74	14	0.05070287	0.181725378	0.249372081
74	14	0.0319858	0.168369189	0.278244879
74	14	0.051068976	0.172206622	0.41635013
74	14	0.031319028	0.18570527	0.447580991
74	14	0.049663369	0.208752405	0.249372081
74	14	0.030946299	0.195396216	0.278244879
74	14	0.050029475	0.199233649	0.41635013
74	14	0.030279527	0.212732297	0.447580991
74	14	0.048623868	0.235779432	0.249372081
74	14	0.029906798	0.222423243	0.278244879
74	14	0.048989974	0.226260676	0.41635013
74	14	0.029240026	0.239759324	0.447580991
74	14	0.047584367	0.262806459	0.249372081
74	14	0.028867297	0.24945027	0.278244879
74	14	0.047950473	0.253287703	0.41635013
74	14	0.028200525	0.266786351	0.447580991
74	14	0.046544866	0.289833486	0.249372081
74	14	0.027827796	0.276477297	0.278244879
74	14	0.046910972	0.28031473	0.41635013
74	14	0.027161024	0.293813378	0.447580991
74	14	0.045505365	0.316860514	0.249372081
74	14	0.026788295	0.303504324	0.278244879
74	14	0.045871471	0.307341757	0.41635013
74	14	0.026121523	0.320840405	0.447580991
74	14	0.044465864	0.343887541	0.249372081
74	14	0.025748794	0.330531351	0.278244879
74	14	0.04483197	0.334368784	0.41635013
74	14	0.025082022	0.347867432	0.447580991
74	14	0.043426363	0.370914568	0.249372081
74	14	0.024709293	0.357558378	0.278244879
74	14	0.043792469	0.361395811	0.41635013
74	14	0.024042521	0.374894459	0.447580991
74	14	0.042386862	0.397941595	0.249372081
74	14	0.023669792	0.384585405	0.278244879
74	14	0.042752968	0.388422838	0.41635013
74	14	0.02300302	0.401921486	0.447580991
74	14	0.041347361	0.424968622	0.249372081
74	14	0.022630291	0.411612432	0.278244879
74	14	0.041713467	0.415449865	0.41635013
74	14	0.021963519	0.428948514	0.447580991
74	14	0.04030786	0.451995649	0.249372081
74	14	0.02159079	0.438639459	0.278244879
74	14	0.040673966	0.442476892	0.41635013
74	14	0.020924018	0.455975541	0.447580991
74	14	0.039268359	0.479022676	0.249372081
74	14	0.020551289	0.465666486	0.278244879
74	14	0.039634465	0.469503919	0.41635013
74	14	0.019884517	0.483002568	0.447580991
74	14	0.038228858	0.506049703	0.249372081
74	14	0.019511788	0.492693514	0.278244879
74	14	0.038594964	0.496530946	0.41635013
74	14	0.018845016	0.510029595	0.447580991
74	14	0.037189357	0.53307673	0.249372081
74	14	0.018472287	0.519720541	0.278244879
74	14	0.037555463	0.523557973	0.41635013
74	14	0.017805515	0.537056622	0.447580991
74	14	0.036149856	0.560103757	0.249372081
74	14	0.017432786	0.546747568	0.278244879
74	14	0.036515962	0.550585	0.41635013
74	14	0.016766014	0.564083649	0.447580991
74	14	0.035110354	0.587130784	0.249372081
74	14	0.016393285	0.573774595	0.278244879
74	14	0.03547646	0.577612027	0.41635013
74	14	0.015726512	0.591110676	0.447580991
74	14	0.034070853	0.614157811	0.249372081
74	14	0.015353784	0.600801622	0.278244879
74	14	0.034436959	0.604639054	0.41635013
74	14	0.014687011	0.618137703	0.447580991
74	14	0.033031352	0.641184838	0.249372081
74	14	0.014314283	0.627828649	0.278244879
74	14	0.033397458	0.631666081	0.41635013
74	14	0.01364751	0.64516473	0.447580991
74	14	0.031991851	0.668211865	0.249372081
74	14	0.013274782	0.654855676	0.278244879
74	14	0.032357957	0.658693108	0.41635013
74	14	0.012608009	0.672191757	0.447580991
74	14	0.03095235	0.695238892	0.249372081
74	14	0.012235281	0.681882703	0.278244879
74	14	0.031318456	0.685720135	0.41635013
74	14	0.011568508	0.699218784	0.447580991
74	14	0.029912849	0.722265919	0.249372081
74	14	0.01119578	0.70890973	0.278244879
74	14	0.030278955	0.712747162	0.41635013
74	14	0.010529007	0.726245811	0.447580991
74	14	0.028873348	0.749292946	0.249372081
74	14	0.010156279	0.735936757	0.278244879
74	14	0.029239454	0.739774189	0.41635013
74	14	0.009489506	0.753272838	0.447580991
74	14	0.027833847	0.776319973	0.249372081
74	14	0.009116778	0.762963784	0.278244879
74	14	0.028199953	0.766801216	0.41635013
74	14	0.008450005	0.780299865	0.447580991
74	14	0.026794346	0.803347	0.249372081
74	14	0.008077277	0.789990811	0.278244879
74	14	0.027160452	0.793828243	0.41635013
74	14	0.007410504	0.807326892	0.447580991
74	14	0.025754845	0.830374027	0.249372081
74	14	0.007037775	0.817017838	0.278244879
74	14	0.026120951	0.82085527	0.41635013
74	14	0.006371003	0.834353919	0.447580991
74	14	0.024715344	0.857401054	0.249372081
74	14	0.005998274	0.844044865	0.278244879
74	14	0.02508145	0.847882297	0.41635013
74	14	0.005331502	0.861380946	0.447580991
74	14	0.023675843	0.884428081	0.249372081
74	14	0.004958773	0.871071892	0.278244879
74	14	0.024041949	0.874909324	0.41635013
74	14	0.004292001	0.888407973	0.447580991
74	14	0.022636342	0.911455108	0.249372081
74	14	0.003919272	0.898098919	0.278244879
74	14	0.023002448	0.901936351	0.41635013
74	14	0.0032525	0.915435	0.447580991
74	14	0.021596841	0.938482135	0.249372081
74	14	0.002879771	0.925125946	0.278244879
74	14	0.021962947	0.928963378	0.41635013
74	14	0.002212999	0.942462027	0.447580991
74	14	0.02055734	0.965509162	0.249372081
74	14	0.00184027	0.952152973	0.278244879
74	14	0.020923446	0.955990405	0.41635013
74	14	0.001173498	0.969489054	0.447580991
74	14	0.019517839	0.992536189	0.249372081
74	14	0.000800769	0.97918	0.278244879
74	14	0.019883945	0.983017432	0.41635013
74	14	0.000133997	0.996516081	0.447580991
74	14	0.095401415	0.019563216	0.249372081
74	14	0.076684345	0.006207027	0.278244879
74	14	0.095767521	0.010044459	0.41635013
74	14	0.076017573	0.023543108	0.447580991
74	14	0.094361914	0.046590243	0.249372081
74	14	0.075644844	0.033234054	0.278244879
74	14	0.09472802	0.037071486	0.41635013
74	14	0.074978072	0.050570135	0.447580991
74	14	0.093322413	0.07361727	0.249372081
74	14	0.074605343	0.060261081	0.278244879
74	14	0.093688519	0.064098514	0.41635013
74	14	0.073938571	0.077597162	0.447580991
74	14	0.092282912	0.100644297	0.249372081
74	14	0.073565842	0.087288108	0.278244879
74	14	0.092649018	0.091125541	0.41635013
74	14	0.07289907	0.104624189	0.447580991
74	14	0.091243411	0.127671324	0.249372081
74	14	0.072526341	0.114315135	0.278244879
74	14	0.091609517	0.118152568	0.41635013
74	14	0.071859569	0.131651216	0.447580991
74	14	0.09020391	0.154698351	0.249372081
74	14	0.07148684	0.141342162	0.278244879
74	14	0.090570016	0.145179595	0.41635013
74	14	0.070820068	0.158678243	0.447580991
74	14	0.089164409	0.181725378	0.249372081
74	14	0.070447339	0.168369189	0.278244879
74	14	0.089530515	0.172206622	0.41635013
74	14	0.069780567	0.18570527	0.447580991
74	14	0.088124907	0.208752405	0.249372081
74	14	0.069407838	0.195396216	0.278244879
74	14	0.088491014	0.199233649	0.41635013
74	14	0.068741065	0.212732297	0.447580991
74	14	0.087085406	0.235779432	0.249372081
74	14	0.068368337	0.222423243	0.278244879
74	14	0.087451512	0.226260676	0.41635013
74	14	0.067701564	0.239759324	0.447580991
74	14	0.086045905	0.262806459	0.249372081
74	14	0.067328836	0.24945027	0.278244879
74	14	0.086412011	0.253287703	0.41635013
74	14	0.066662063	0.266786351	0.447580991
74	14	0.085006404	0.289833486	0.249372081
74	14	0.066289335	0.276477297	0.278244879
74	14	0.08537251	0.28031473	0.41635013
74	14	0.065622562	0.293813378	0.447580991
74	14	0.083966903	0.316860514	0.249372081
74	14	0.065249834	0.303504324	0.278244879
74	14	0.084333009	0.307341757	0.41635013
74	14	0.064583061	0.320840405	0.447580991
74	14	0.082927402	0.343887541	0.249372081
74	14	0.064210333	0.330531351	0.278244879
74	14	0.083293508	0.334368784	0.41635013
74	14	0.06354356	0.347867432	0.447580991
74	14	0.081887901	0.370914568	0.249372081
74	14	0.063170832	0.357558378	0.278244879
74	14	0.082254007	0.361395811	0.41635013
74	14	0.062504059	0.374894459	0.447580991
74	14	0.0808484	0.397941595	0.249372081
74	14	0.062131331	0.384585405	0.278244879
74	14	0.081214506	0.388422838	0.41635013
74	14	0.061464558	0.401921486	0.447580991
74	14	0.079808899	0.424968622	0.249372081
74	14	0.06109183	0.411612432	0.278244879
74	14	0.080175005	0.415449865	0.41635013
74	14	0.060425057	0.428948514	0.447580991
74	14	0.078769398	0.451995649	0.249372081
74	14	0.060052328	0.438639459	0.278244879
74	14	0.079135504	0.442476892	0.41635013
74	14	0.059385556	0.455975541	0.447580991
74	14	0.077729897	0.479022676	0.249372081
74	14	0.059012827	0.465666486	0.278244879
74	14	0.078096003	0.469503919	0.41635013
74	14	0.058346055	0.483002568	0.447580991
74	14	0.076690396	0.506049703	0.249372081
74	14	0.057973326	0.492693514	0.278244879
74	14	0.077056502	0.496530946	0.41635013
74	14	0.057306554	0.510029595	0.447580991
74	14	0.075650895	0.53307673	0.249372081
74	14	0.056933825	0.519720541	0.278244879
74	14	0.076017001	0.523557973	0.41635013
74	14	0.056267053	0.537056622	0.447580991
74	14	0.074611394	0.560103757	0.249372081
74	14	0.055894324	0.546747568	0.278244879
74	14	0.0749775	0.550585	0.41635013
74	14	0.055227552	0.564083649	0.447580991
74	14	0.073571893	0.587130784	0.249372081
74	14	0.054854823	0.573774595	0.278244879
74	14	0.073937999	0.577612027	0.41635013
74	14	0.054188051	0.591110676	0.447580991
74	14	0.072532392	0.614157811	0.249372081
74	14	0.053815322	0.600801622	0.278244879
74	14	0.072898498	0.604639054	0.41635013
74	14	0.05314855	0.618137703	0.447580991
74	14	0.071492891	0.641184838	0.249372081
74	14	0.052775821	0.627828649	0.278244879
74	14	0.071858997	0.631666081	0.41635013
74	14	0.052109049	0.64516473	0.447580991
74	14	0.07045339	0.668211865	0.249372081
74	14	0.05173632	0.654855676	0.278244879
74	14	0.070819496	0.658693108	0.41635013
74	14	0.051069548	0.672191757	0.447580991
74	14	0.069413889	0.695238892	0.249372081
74	14	0.050696819	0.681882703	0.278244879
74	14	0.069779995	0.685720135	0.41635013
74	14	0.050030047	0.699218784	0.447580991
74	14	0.068374388	0.722265919	0.249372081
74	14	0.049657318	0.70890973	0.278244879
74	14	0.068740494	0.712747162	0.41635013
74	14	0.048990546	0.726245811	0.447580991
74	14	0.067334887	0.749292946	0.249372081
74	14	0.048617817	0.735936757	0.278244879
74	14	0.067700993	0.739774189	0.41635013
74	14	0.047951045	0.753272838	0.447580991
74	14	0.066295386	0.776319973	0.249372081
74	14	0.047578316	0.762963784	0.278244879
74	14	0.066661492	0.766801216	0.41635013
74	14	0.046911544	0.780299865	0.447580991
74	14	0.065255885	0.803347	0.249372081
74	14	0.046538815	0.789990811	0.278244879
74	14	0.065621991	0.793828243	0.41635013
74	14	0.045872043	0.807326892	0.447580991
74	14	0.064216384	0.830374027	0.249372081
74	14	0.045499314	0.817017838	0.278244879
74	14	0.06458249	0.82085527	0.41635013
74	14	0.044832542	0.834353919	0.447580991
74	14	0.063176883	0.857401054	0.249372081
74	14	0.044459813	0.844044865	0.278244879
74	14	0.063542989	0.847882297	0.41635013
74	14	0.043793041	0.861380946	0.447580991
74	14	0.062137381	0.884428081	0.249372081
74	14	0.043420312	0.871071892	0.278244879
74	14	0.062503488	0.874909324	0.41635013
74	14	0.04275354	0.888407973	0.447580991
74	14	0.06109788	0.911455108	0.249372081
74	14	0.042380811	0.898098919	0.278244879
74	14	0.061463986	0.901936351	0.41635013
74	14	0.041714038	0.915435	0.447580991
74	14	0.060058379	0.938482135	0.249372081
74	14	0.04134131	0.925125946	0.278244879
74	14	0.060424485	0.928963378	0.41635013
74	14	0.040674537	0.942462027	0.447580991
74	14	0.059018878	0.965509162	0.249372081
74	14	0.040301809	0.952152973	0.278244879
74	14	0.059384984	0.955990405	0.41635013
74	14	0.039635036	0.969489054	0.447580991
74	14	0.057979377	0.992536189	0.249372081
74	14	0.039262308	0.97918	0.278244879
74	14	0.058345483	0.983017432	0.41635013
74	14	0.038595535	0.996516081	0.447580991
74	14	0.133862953	0.019563216	0.249372081
74	14	0.115145884	0.006207027	0.278244879
74	14	0.134229059	0.010044459	0.41635013
74	14	0.114479111	0.023543108	0.447580991
74	14	0.132823452	0.046590243	0.249372081
74	14	0.114106383	0.033234054	0.278244879
74	14	0.133189558	0.037071486	0.41635013
74	14	0.11343961	0.050570135	0.447580991
74	14	0.131783951	0.07361727	0.249372081
74	14	0.113066881	0.060261081	0.278244879
74	14	0.132150057	0.064098514	0.41635013
74	14	0.112400109	0.077597162	0.447580991
74	14	0.13074445	0.100644297	0.249372081
74	14	0.11202738	0.087288108	0.278244879
74	14	0.131110556	0.091125541	0.41635013
74	14	0.111360608	0.104624189	0.447580991
74	14	0.129704949	0.127671324	0.249372081
74	14	0.110987879	0.114315135	0.278244879
74	14	0.130071055	0.118152568	0.41635013
74	14	0.110321107	0.131651216	0.447580991
74	14	0.128665448	0.154698351	0.249372081
74	14	0.109948378	0.141342162	0.278244879
74	14	0.129031554	0.145179595	0.41635013
74	14	0.109281606	0.158678243	0.447580991
74	14	0.127625947	0.181725378	0.249372081
74	14	0.108908877	0.168369189	0.278244879
74	14	0.127992053	0.172206622	0.41635013
74	14	0.108242105	0.18570527	0.447580991
74	14	0.126586446	0.208752405	0.249372081
74	14	0.107869376	0.195396216	0.278244879
74	14	0.126952552	0.199233649	0.41635013
74	14	0.107202604	0.212732297	0.447580991
74	14	0.125546945	0.235779432	0.249372081
74	14	0.106829875	0.222423243	0.278244879
74	14	0.125913051	0.226260676	0.41635013
74	14	0.106163103	0.239759324	0.447580991
74	14	0.124507444	0.262806459	0.249372081
74	14	0.105790374	0.24945027	0.278244879
74	14	0.12487355	0.253287703	0.41635013
74	14	0.105123602	0.266786351	0.447580991
74	14	0.123467943	0.289833486	0.249372081
74	14	0.104750873	0.276477297	0.278244879
74	14	0.123834049	0.28031473	0.41635013
74	14	0.104084101	0.293813378	0.447580991
74	14	0.122428442	0.316860514	0.249372081
74	14	0.103711372	0.303504324	0.278244879
74	14	0.122794548	0.307341757	0.41635013
74	14	0.1030446	0.320840405	0.447580991
74	14	0.121388941	0.343887541	0.249372081
74	14	0.102671871	0.330531351	0.278244879
74	14	0.121755047	0.334368784	0.41635013
74	14	0.102005099	0.347867432	0.447580991
74	14	0.12034944	0.370914568	0.249372081
74	14	0.10163237	0.357558378	0.278244879
74	14	0.120715546	0.361395811	0.41635013
74	14	0.100965598	0.374894459	0.447580991
74	14	0.119309939	0.397941595	0.249372081
74	14	0.100592869	0.384585405	0.278244879
74	14	0.119676045	0.388422838	0.41635013
74	14	0.099926097	0.401921486	0.447580991
74	14	0.118270438	0.424968622	0.249372081
74	14	0.099553368	0.411612432	0.278244879
74	14	0.118636544	0.415449865	0.41635013
74	14	0.098886596	0.428948514	0.447580991
74	14	0.117230937	0.451995649	0.249372081
74	14	0.098513867	0.438639459	0.278244879
74	14	0.117597043	0.442476892	0.41635013
74	14	0.097847095	0.455975541	0.447580991
74	14	0.116191436	0.479022676	0.249372081
74	14	0.097474366	0.465666486	0.278244879
74	14	0.116557542	0.469503919	0.41635013
74	14	0.096807594	0.483002568	0.447580991
74	14	0.115151935	0.506049703	0.249372081
74	14	0.096434865	0.492693514	0.278244879
74	14	0.115518041	0.496530946	0.41635013
74	14	0.095768093	0.510029595	0.447580991
74	14	0.114112433	0.53307673	0.249372081
74	14	0.095395364	0.519720541	0.278244879
74	14	0.11447854	0.523557973	0.41635013
74	14	0.094728591	0.537056622	0.447580991
74	14	0.113072932	0.560103757	0.249372081
74	14	0.094355863	0.546747568	0.278244879
74	14	0.113439038	0.550585	0.41635013
74	14	0.09368909	0.564083649	0.447580991
74	14	0.112033431	0.587130784	0.249372081
74	14	0.093316362	0.573774595	0.278244879
74	14	0.112399537	0.577612027	0.41635013
74	14	0.092649589	0.591110676	0.447580991
74	14	0.11099393	0.614157811	0.249372081
74	14	0.092276861	0.600801622	0.278244879
74	14	0.111360036	0.604639054	0.41635013
74	14	0.091610088	0.618137703	0.447580991
74	14	0.109954429	0.641184838	0.249372081
74	14	0.09123736	0.627828649	0.278244879
74	14	0.110320535	0.631666081	0.41635013
74	14	0.090570587	0.64516473	0.447580991
74	14	0.108914928	0.668211865	0.249372081
74	14	0.090197859	0.654855676	0.278244879
74	14	0.109281034	0.658693108	0.41635013
74	14	0.089531086	0.672191757	0.447580991
74	14	0.107875427	0.695238892	0.249372081
74	14	0.089158358	0.681882703	0.278244879
74	14	0.108241533	0.685720135	0.41635013
74	14	0.088491585	0.699218784	0.447580991
74	14	0.106835926	0.722265919	0.249372081
74	14	0.088118857	0.70890973	0.278244879
74	14	0.107202032	0.712747162	0.41635013
74	14	0.087452084	0.726245811	0.447580991
74	14	0.105796425	0.749292946	0.249372081
74	14	0.087079356	0.735936757	0.278244879
74	14	0.106162531	0.739774189	0.41635013
74	14	0.086412583	0.753272838	0.447580991
74	14	0.104756924	0.776319973	0.249372081
74	14	0.086039854	0.762963784	0.278244879
74	14	0.10512303	0.766801216	0.41635013
74	14	0.085373082	0.780299865	0.447580991
74	14	0.103717423	0.803347	0.249372081
74	14	0.085000353	0.789990811	0.278244879
74	14	0.104083529	0.793828243	0.41635013
74	14	0.084333581	0.807326892	0.447580991
74	14	0.102677922	0.830374027	0.249372081
74	14	0.083960852	0.817017838	0.278244879
74	14	0.103044028	0.82085527	0.41635013
74	14	0.08329408	0.834353919	0.447580991
74	14	0.101638421	0.857401054	0.249372081
74	14	0.082921351	0.844044865	0.278244879
74	14	0.102004527	0.847882297	0.41635013
74	14	0.082254579	0.861380946	0.447580991
74	14	0.10059892	0.884428081	0.249372081
74	14	0.08188185	0.871071892	0.278244879
74	14	0.100965026	0.874909324	0.41635013
74	14	0.081215078	0.888407973	0.447580991
74	14	0.099559419	0.911455108	0.249372081
74	14	0.080842349	0.898098919	0.278244879
74	14	0.099925525	0.901936351	0.41635013
74	14	0.080175577	0.915435	0.447580991
74	14	0.098519918	0.938482135	0.249372081
74	14	0.079802848	0.925125946	0.278244879
74	14	0.098886024	0.928963378	0.41635013
74	14	0.079136076	0.942462027	0.447580991
74	14	0.097480417	0.965509162	0.249372081
74	14	0.078763347	0.952152973	0.278244879
74	14	0.097846523	0.955990405	0.41635013
74	14	0.078096575	0.969489054	0.447580991
74	14	0.096440916	0.992536189	0.249372081
74	14	0.077723846	0.97918	0.278244879
74	14	0.096807022	0.983017432	0.41635013
74	14	0.077057074	0.996516081	0.447580991
74	14	0.172324492	0.019563216	0.249372081
74	14	0.153607422	0.006207027	0.278244879
74	14	0.172690598	0.010044459	0.41635013
74	14	0.15294065	0.023543108	0.447580991
74	14	0.171284991	0.046590243	0.249372081
74	14	0.152567921	0.033234054	0.278244879
74	14	0.171651097	0.037071486	0.41635013
74	14	0.151901149	0.050570135	0.447580991
74	14	0.17024549	0.07361727	0.249372081
74	14	0.15152842	0.060261081	0.278244879
74	14	0.170611596	0.064098514	0.41635013
74	14	0.150861648	0.077597162	0.447580991
74	14	0.169205989	0.100644297	0.249372081
74	14	0.150488919	0.087288108	0.278244879
74	14	0.169572095	0.091125541	0.41635013
74	14	0.149822147	0.104624189	0.447580991
74	14	0.168166488	0.127671324	0.249372081
74	14	0.149449418	0.114315135	0.278244879
74	14	0.168532594	0.118152568	0.41635013
74	14	0.148782646	0.131651216	0.447580991
74	14	0.167126986	0.154698351	0.249372081
74	14	0.148409917	0.141342162	0.278244879
74	14	0.167493093	0.145179595	0.41635013
74	14	0.147743144	0.158678243	0.447580991
74	14	0.166087485	0.181725378	0.249372081
74	14	0.147370416	0.168369189	0.278244879
74	14	0.166453591	0.172206622	0.41635013
74	14	0.146703643	0.18570527	0.447580991
74	14	0.165047984	0.208752405	0.249372081
74	14	0.146330915	0.195396216	0.278244879
74	14	0.16541409	0.199233649	0.41635013
74	14	0.145664142	0.212732297	0.447580991
74	14	0.164008483	0.235779432	0.249372081
74	14	0.145291414	0.222423243	0.278244879
74	14	0.164374589	0.226260676	0.41635013
74	14	0.144624641	0.239759324	0.447580991
74	14	0.162968982	0.262806459	0.249372081
74	14	0.144251913	0.24945027	0.278244879
74	14	0.163335088	0.253287703	0.41635013
74	14	0.14358514	0.266786351	0.447580991
74	14	0.161929481	0.289833486	0.249372081
74	14	0.143212412	0.276477297	0.278244879
74	14	0.162295587	0.28031473	0.41635013
74	14	0.142545639	0.293813378	0.447580991
74	14	0.16088998	0.316860514	0.249372081
74	14	0.142172911	0.303504324	0.278244879
74	14	0.161256086	0.307341757	0.41635013
74	14	0.141506138	0.320840405	0.447580991
74	14	0.159850479	0.343887541	0.249372081
74	14	0.14113341	0.330531351	0.278244879
74	14	0.160216585	0.334368784	0.41635013
74	14	0.140466637	0.347867432	0.447580991
74	14	0.158810978	0.370914568	0.249372081
74	14	0.140093909	0.357558378	0.278244879
74	14	0.159177084	0.361395811	0.41635013
74	14	0.139427136	0.374894459	0.447580991
74	14	0.157771477	0.397941595	0.249372081
74	14	0.139054407	0.384585405	0.278244879
74	14	0.158137583	0.388422838	0.41635013
74	14	0.138387635	0.401921486	0.447580991
74	14	0.156731976	0.424968622	0.249372081
74	14	0.138014906	0.411612432	0.278244879
74	14	0.157098082	0.415449865	0.41635013
74	14	0.137348134	0.428948514	0.447580991
74	14	0.155692475	0.451995649	0.249372081
74	14	0.136975405	0.438639459	0.278244879
74	14	0.156058581	0.442476892	0.41635013
74	14	0.136308633	0.455975541	0.447580991
74	14	0.154652974	0.479022676	0.249372081
74	14	0.135935904	0.465666486	0.278244879
74	14	0.15501908	0.469503919	0.41635013
74	14	0.135269132	0.483002568	0.447580991
74	14	0.153613473	0.506049703	0.249372081
74	14	0.134896403	0.492693514	0.278244879
74	14	0.153979579	0.496530946	0.41635013
74	14	0.134229631	0.510029595	0.447580991
74	14	0.152573972	0.53307673	0.249372081
74	14	0.133856902	0.519720541	0.278244879
74	14	0.152940078	0.523557973	0.41635013
74	14	0.13319013	0.537056622	0.447580991
74	14	0.151534471	0.560103757	0.249372081
74	14	0.132817401	0.546747568	0.278244879
74	14	0.151900577	0.550585	0.41635013
74	14	0.132150629	0.564083649	0.447580991
74	14	0.15049497	0.587130784	0.249372081
74	14	0.1317779	0.573774595	0.278244879
74	14	0.150861076	0.577612027	0.41635013
74	14	0.131111128	0.591110676	0.447580991
74	14	0.149455469	0.614157811	0.249372081
74	14	0.130738399	0.600801622	0.278244879
74	14	0.149821575	0.604639054	0.41635013
74	14	0.130071627	0.618137703	0.447580991
74	14	0.148415968	0.641184838	0.249372081
74	14	0.129698898	0.627828649	0.278244879
74	14	0.148782074	0.631666081	0.41635013
74	14	0.129032126	0.64516473	0.447580991
74	14	0.147376467	0.668211865	0.249372081
74	14	0.128659397	0.654855676	0.278244879
74	14	0.147742573	0.658693108	0.41635013
74	14	0.127992625	0.672191757	0.447580991
74	14	0.146336966	0.695238892	0.249372081
74	14	0.127619896	0.681882703	0.278244879
74	14	0.146703072	0.685720135	0.41635013
74	14	0.126953124	0.699218784	0.447580991
74	14	0.145297465	0.722265919	0.249372081
74	14	0.126580395	0.70890973	0.278244879
74	14	0.145663571	0.712747162	0.41635013
74	14	0.125913623	0.726245811	0.447580991
74	14	0.144257964	0.749292946	0.249372081
74	14	0.125540894	0.735936757	0.278244879
74	14	0.14462407	0.739774189	0.41635013
74	14	0.124874122	0.753272838	0.447580991
74	14	0.143218463	0.776319973	0.249372081
74	14	0.124501393	0.762963784	0.278244879
74	14	0.143584569	0.766801216	0.41635013
74	14	0.123834621	0.780299865	0.447580991
74	14	0.142178962	0.803347	0.249372081
74	14	0.123461892	0.789990811	0.278244879
74	14	0.142545068	0.793828243	0.41635013
74	14	0.12279512	0.807326892	0.447580991
74	14	0.14113946	0.830374027	0.249372081
74	14	0.122422391	0.817017838	0.278244879
74	14	0.141505567	0.82085527	0.41635013
74	14	0.121755619	0.834353919	0.447580991
74	14	0.140099959	0.857401054	0.249372081
74	14	0.12138289	0.844044865	0.278244879
74	14	0.140466065	0.847882297	0.41635013
74	14	0.120716117	0.861380946	0.447580991
74	14	0.139060458	0.884428081	0.249372081
74	14	0.120343389	0.871071892	0.278244879
74	14	0.139426564	0.874909324	0.41635013
74	14	0.119676616	0.888407973	0.447580991
74	14	0.138020957	0.911455108	0.249372081
74	14	0.119303888	0.898098919	0.278244879
74	14	0.138387063	0.901936351	0.41635013
74	14	0.118637115	0.915435	0.447580991
74	14	0.136981456	0.938482135	0.249372081
74	14	0.118264387	0.925125946	0.278244879
74	14	0.137347562	0.928963378	0.41635013
74	14	0.117597614	0.942462027	0.447580991
74	14	0.135941955	0.965509162	0.249372081
74	14	0.117224886	0.952152973	0.278244879
74	14	0.136308061	0.955990405	0.41635013
74	14	0.116558113	0.969489054	0.447580991
74	14	0.134902454	0.992536189	0.249372081
74	14	0.116185385	0.97918	0.278244879
74	14	0.13526856	0.983017432	0.41635013
74	14	0.115518612	0.996516081	0.447580991
74	14	0.21078603	0.019563216	0.249372081
74	14	0.19206896	0.006207027	0.278244879
74	14	0.211152136	0.010044459	0.41635013
74	14	0.191402188	0.023543108	0.447580991
74	14	0.209746529	0.046590243	0.249372081
74	14	0.191029459	0.033234054	0.278244879
74	14	0.210112635	0.037071486	0.41635013
74	14	0.190362687	0.050570135	0.447580991
74	14	0.208707028	0.07361727	0.249372081
74	14	0.189989958	0.060261081	0.278244879
74	14	0.209073134	0.064098514	0.41635013
74	14	0.189323186	0.077597162	0.447580991
74	14	0.207667527	0.100644297	0.249372081
74	14	0.188950457	0.087288108	0.278244879
74	14	0.208033633	0.091125541	0.41635013
74	14	0.188283685	0.104624189	0.447580991
74	14	0.206628026	0.127671324	0.249372081
74	14	0.187910956	0.114315135	0.278244879
74	14	0.206994132	0.118152568	0.41635013
74	14	0.187244184	0.131651216	0.447580991
74	14	0.205588525	0.154698351	0.249372081
74	14	0.186871455	0.141342162	0.278244879
74	14	0.205954631	0.145179595	0.41635013
74	14	0.186204683	0.158678243	0.447580991
74	14	0.204549024	0.181725378	0.249372081
74	14	0.185831954	0.168369189	0.278244879
74	14	0.20491513	0.172206622	0.41635013
74	14	0.185165182	0.18570527	0.447580991
74	14	0.203509523	0.208752405	0.249372081
74	14	0.184792453	0.195396216	0.278244879
74	14	0.203875629	0.199233649	0.41635013
74	14	0.184125681	0.212732297	0.447580991
74	14	0.202470022	0.235779432	0.249372081
74	14	0.183752952	0.222423243	0.278244879
74	14	0.202836128	0.226260676	0.41635013
74	14	0.18308618	0.239759324	0.447580991
74	14	0.201430521	0.262806459	0.249372081
74	14	0.182713451	0.24945027	0.278244879
74	14	0.201796627	0.253287703	0.41635013
74	14	0.182046679	0.266786351	0.447580991
74	14	0.20039102	0.289833486	0.249372081
74	14	0.18167395	0.276477297	0.278244879
74	14	0.200757126	0.28031473	0.41635013
74	14	0.181007178	0.293813378	0.447580991
74	14	0.199351519	0.316860514	0.249372081
74	14	0.180634449	0.303504324	0.278244879
74	14	0.199717625	0.307341757	0.41635013
74	14	0.179967677	0.320840405	0.447580991
74	14	0.198312018	0.343887541	0.249372081
74	14	0.179594948	0.330531351	0.278244879
74	14	0.198678124	0.334368784	0.41635013
74	14	0.178928176	0.347867432	0.447580991
74	14	0.197272517	0.370914568	0.249372081
74	14	0.178555447	0.357558378	0.278244879
74	14	0.197638623	0.361395811	0.41635013
74	14	0.177888675	0.374894459	0.447580991
74	14	0.196233016	0.397941595	0.249372081
74	14	0.177515946	0.384585405	0.278244879
74	14	0.196599122	0.388422838	0.41635013
74	14	0.176849174	0.401921486	0.447580991
74	14	0.195193515	0.424968622	0.249372081
74	14	0.176476445	0.411612432	0.278244879
74	14	0.195559621	0.415449865	0.41635013
74	14	0.175809673	0.428948514	0.447580991
74	14	0.194154014	0.451995649	0.249372081
74	14	0.175436944	0.438639459	0.278244879
74	14	0.19452012	0.442476892	0.41635013
74	14	0.174770172	0.455975541	0.447580991
74	14	0.193114512	0.479022676	0.249372081
74	14	0.174397443	0.465666486	0.278244879
74	14	0.193480619	0.469503919	0.41635013
74	14	0.17373067	0.483002568	0.447580991
74	14	0.192075011	0.506049703	0.249372081
74	14	0.173357942	0.492693514	0.278244879
74	14	0.192441117	0.496530946	0.41635013
74	14	0.172691169	0.510029595	0.447580991
74	14	0.19103551	0.53307673	0.249372081
74	14	0.172318441	0.519720541	0.278244879
74	14	0.191401616	0.523557973	0.41635013
74	14	0.171651668	0.537056622	0.447580991
74	14	0.189996009	0.560103757	0.249372081
74	14	0.17127894	0.546747568	0.278244879
74	14	0.190362115	0.550585	0.41635013
74	14	0.170612167	0.564083649	0.447580991
74	14	0.188956508	0.587130784	0.249372081
74	14	0.170239439	0.573774595	0.278244879
74	14	0.189322614	0.577612027	0.41635013
74	14	0.169572666	0.591110676	0.447580991
74	14	0.187917007	0.614157811	0.249372081
74	14	0.169199938	0.600801622	0.278244879
74	14	0.188283113	0.604639054	0.41635013
74	14	0.168533165	0.618137703	0.447580991
74	14	0.186877506	0.641184838	0.249372081
74	14	0.168160437	0.627828649	0.278244879
74	14	0.187243612	0.631666081	0.41635013
74	14	0.167493664	0.64516473	0.447580991
74	14	0.185838005	0.668211865	0.249372081
74	14	0.167120936	0.654855676	0.278244879
74	14	0.186204111	0.658693108	0.41635013
74	14	0.166454163	0.672191757	0.447580991
74	14	0.184798504	0.695238892	0.249372081
74	14	0.166081435	0.681882703	0.278244879
74	14	0.18516461	0.685720135	0.41635013
74	14	0.165414662	0.699218784	0.447580991
74	14	0.183759003	0.722265919	0.249372081
74	14	0.165041933	0.70890973	0.278244879
74	14	0.184125109	0.712747162	0.41635013
74	14	0.164375161	0.726245811	0.447580991
74	14	0.182719502	0.749292946	0.249372081
74	14	0.164002432	0.735936757	0.278244879
74	14	0.183085608	0.739774189	0.41635013
74	14	0.16333566	0.753272838	0.447580991
74	14	0.181680001	0.776319973	0.249372081
74	14	0.162962931	0.762963784	0.278244879
74	14	0.182046107	0.766801216	0.41635013
74	14	0.162296159	0.780299865	0.447580991
74	14	0.1806405	0.803347	0.249372081
74	14	0.16192343	0.789990811	0.278244879
74	14	0.181006606	0.793828243	0.41635013
74	14	0.161256658	0.807326892	0.447580991
74	14	0.179600999	0.830374027	0.249372081
74	14	0.160883929	0.817017838	0.278244879
74	14	0.179967105	0.82085527	0.41635013
74	14	0.160217157	0.834353919	0.447580991
74	14	0.178561498	0.857401054	0.249372081
74	14	0.159844428	0.844044865	0.278244879
74	14	0.178927604	0.847882297	0.41635013
74	14	0.159177656	0.861380946	0.447580991
74	14	0.177521997	0.884428081	0.249372081
74	14	0.158804927	0.871071892	0.278244879
74	14	0.177888103	0.874909324	0.41635013
74	14	0.158138155	0.888407973	0.447580991
74	14	0.176482496	0.911455108	0.249372081
74	14	0.157765426	0.898098919	0.278244879
74	14	0.176848602	0.901936351	0.41635013
74	14	0.157098654	0.915435	0.447580991
74	14	0.175442995	0.938482135	0.249372081
74	14	0.156725925	0.925125946	0.278244879
74	14	0.175809101	0.928963378	0.41635013
74	14	0.156059153	0.942462027	0.447580991
74	14	0.174403494	0.965509162	0.249372081
74	14	0.155686424	0.952152973	0.278244879
74	14	0.1747696	0.955990405	0.41635013
74	14	0.155019652	0.969489054	0.447580991
74	14	0.173363993	0.992536189	0.249372081
74	14	0.154646923	0.97918	0.278244879
74	14	0.173730099	0.983017432	0.41635013
74	14	0.153980151	0.996516081	0.447580991
74	14	0.249247569	0.019563216	0.249372081
74	14	0.230530499	0.006207027	0.278244879
74	14	0.249613675	0.010044459	0.41635013
74	14	0.229863727	0.023543108	0.447580991
74	14	0.248208068	0.046590243	0.249372081
74	14	0.229490998	0.033234054	0.278244879
74	14	0.248574174	0.037071486	0.41635013
74	14	0.228824226	0.050570135	0.447580991
74	14	0.247168567	0.07361727	0.249372081
74	14	0.228451497	0.060261081	0.278244879
74	14	0.247534673	0.064098514	0.41635013
74	14	0.227784725	0.077597162	0.447580991
74	14	0.246129065	0.100644297	0.249372081
74	14	0.227411996	0.087288108	0.278244879
74	14	0.246495172	0.091125541	0.41635013
74	14	0.226745223	0.104624189	0.447580991
74	14	0.245089564	0.127671324	0.249372081
74	14	0.226372495	0.114315135	0.278244879
74	14	0.24545567	0.118152568	0.41635013
74	14	0.225705722	0.131651216	0.447580991
74	14	0.244050063	0.154698351	0.249372081
74	14	0.225332994	0.141342162	0.278244879
74	14	0.244416169	0.145179595	0.41635013
74	14	0.224666221	0.158678243	0.447580991
74	14	0.243010562	0.181725378	0.249372081
74	14	0.224293493	0.168369189	0.278244879
74	14	0.243376668	0.172206622	0.41635013
74	14	0.22362672	0.18570527	0.447580991
74	14	0.241971061	0.208752405	0.249372081
74	14	0.223253992	0.195396216	0.278244879
74	14	0.242337167	0.199233649	0.41635013
74	14	0.222587219	0.212732297	0.447580991
74	14	0.24093156	0.235779432	0.249372081
74	14	0.222214491	0.222423243	0.278244879
74	14	0.241297666	0.226260676	0.41635013
74	14	0.221547718	0.239759324	0.447580991
74	14	0.239892059	0.262806459	0.249372081
74	14	0.22117499	0.24945027	0.278244879
74	14	0.240258165	0.253287703	0.41635013
74	14	0.220508217	0.266786351	0.447580991
74	14	0.238852558	0.289833486	0.249372081
74	14	0.220135489	0.276477297	0.278244879
74	14	0.239218664	0.28031473	0.41635013
74	14	0.219468716	0.293813378	0.447580991
74	14	0.237813057	0.316860514	0.249372081
74	14	0.219095988	0.303504324	0.278244879
74	14	0.238179163	0.307341757	0.41635013
74	14	0.218429215	0.320840405	0.447580991
74	14	0.236773556	0.343887541	0.249372081
74	14	0.218056486	0.330531351	0.278244879
74	14	0.237139662	0.334368784	0.41635013
74	14	0.217389714	0.347867432	0.447580991
74	14	0.235734055	0.370914568	0.249372081
74	14	0.217016985	0.357558378	0.278244879
74	14	0.236100161	0.361395811	0.41635013
74	14	0.216350213	0.374894459	0.447580991
74	14	0.234694554	0.397941595	0.249372081
74	14	0.215977484	0.384585405	0.278244879
74	14	0.23506066	0.388422838	0.41635013
74	14	0.215310712	0.401921486	0.447580991
74	14	0.233655053	0.424968622	0.249372081
74	14	0.214937983	0.411612432	0.278244879
74	14	0.234021159	0.415449865	0.41635013
74	14	0.214271211	0.428948514	0.447580991
74	14	0.232615552	0.451995649	0.249372081
74	14	0.213898482	0.438639459	0.278244879
74	14	0.232981658	0.442476892	0.41635013
74	14	0.21323171	0.455975541	0.447580991
74	14	0.231576051	0.479022676	0.249372081
74	14	0.212858981	0.465666486	0.278244879
74	14	0.231942157	0.469503919	0.41635013
74	14	0.212192209	0.483002568	0.447580991
74	14	0.23053655	0.506049703	0.249372081
74	14	0.21181948	0.492693514	0.278244879
74	14	0.230902656	0.496530946	0.41635013
74	14	0.211152708	0.510029595	0.447580991
74	14	0.229497049	0.53307673	0.249372081
74	14	0.210779979	0.519720541	0.278244879
74	14	0.229863155	0.523557973	0.41635013
74	14	0.210113207	0.537056622	0.447580991
74	14	0.228457548	0.560103757	0.249372081
74	14	0.209740478	0.546747568	0.278244879
74	14	0.228823654	0.550585	0.41635013
74	14	0.209073706	0.564083649	0.447580991
74	14	0.227418047	0.587130784	0.249372081
74	14	0.208700977	0.573774595	0.278244879
74	14	0.227784153	0.577612027	0.41635013
74	14	0.208034205	0.591110676	0.447580991
74	14	0.226378546	0.614157811	0.249372081
74	14	0.207661476	0.600801622	0.278244879
74	14	0.226744652	0.604639054	0.41635013
74	14	0.206994704	0.618137703	0.447580991
74	14	0.225339045	0.641184838	0.249372081
74	14	0.206621975	0.627828649	0.278244879
74	14	0.225705151	0.631666081	0.41635013
74	14	0.205955203	0.64516473	0.447580991
74	14	0.224299544	0.668211865	0.249372081
74	14	0.205582474	0.654855676	0.278244879
74	14	0.22466565	0.658693108	0.41635013
74	14	0.204915702	0.672191757	0.447580991
74	14	0.223260043	0.695238892	0.249372081
74	14	0.204542973	0.681882703	0.278244879
74	14	0.223626149	0.685720135	0.41635013
74	14	0.203876201	0.699218784	0.447580991
74	14	0.222220542	0.722265919	0.249372081
74	14	0.203503472	0.70890973	0.278244879
74	14	0.222586648	0.712747162	0.41635013
74	14	0.2028367	0.726245811	0.447580991
74	14	0.221181041	0.749292946	0.249372081
74	14	0.202463971	0.735936757	0.278244879
74	14	0.221547147	0.739774189	0.41635013
74	14	0.201797199	0.753272838	0.447580991
74	14	0.22014154	0.776319973	0.249372081
74	14	0.20142447	0.762963784	0.278244879
74	14	0.220507646	0.766801216	0.41635013
74	14	0.200757698	0.780299865	0.447580991
74	14	0.219102038	0.803347	0.249372081
74	14	0.200384969	0.789990811	0.278244879
74	14	0.219468144	0.793828243	0.41635013
74	14	0.199718196	0.807326892	0.447580991
74	14	0.218062537	0.830374027	0.249372081
74	14	0.199345468	0.817017838	0.278244879
74	14	0.218428643	0.82085527	0.41635013
74	14	0.198678695	0.834353919	0.447580991
74	14	0.217023036	0.857401054	0.249372081
74	14	0.198305967	0.844044865	0.278244879
74	14	0.217389142	0.847882297	0.41635013
74	14	0.197639194	0.861380946	0.447580991
74	14	0.215983535	0.884428081	0.249372081
74	14	0.197266466	0.871071892	0.278244879
74	14	0.216349641	0.874909324	0.41635013
74	14	0.196599693	0.888407973	0.447580991
74	14	0.214944034	0.911455108	0.249372081
74	14	0.196226965	0.898098919	0.278244879
74	14	0.21531014	0.901936351	0.41635013
74	14	0.195560192	0.915435	0.447580991
74	14	0.213904533	0.938482135	0.249372081
74	14	0.195187464	0.925125946	0.278244879
74	14	0.214270639	0.928963378	0.41635013
74	14	0.194520691	0.942462027	0.447580991
74	14	0.212865032	0.965509162	0.249372081
74	14	0.194147963	0.952152973	0.278244879
74	14	0.213231138	0.955990405	0.41635013
74	14	0.19348119	0.969489054	0.447580991
74	14	0.211825531	0.992536189	0.249372081
74	14	0.193108462	0.97918	0.278244879
74	14	0.212191637	0.983017432	0.41635013
74	14	0.192441689	0.996516081	0.447580991
74	14	0.287709107	0.019563216	0.249372081
74	14	0.268992037	0.006207027	0.278244879
74	14	0.288075213	0.010044459	0.41635013
74	14	0.268325265	0.023543108	0.447580991
74	14	0.286669606	0.046590243	0.249372081
74	14	0.267952536	0.033234054	0.278244879
74	14	0.287035712	0.037071486	0.41635013
74	14	0.267285764	0.050570135	0.447580991
74	14	0.285630105	0.07361727	0.249372081
74	14	0.266913035	0.060261081	0.278244879
74	14	0.285996211	0.064098514	0.41635013
74	14	0.266246263	0.077597162	0.447580991
74	14	0.284590604	0.100644297	0.249372081
74	14	0.265873534	0.087288108	0.278244879
74	14	0.28495671	0.091125541	0.41635013
74	14	0.265206762	0.104624189	0.447580991
74	14	0.283551103	0.127671324	0.249372081
74	14	0.264834033	0.114315135	0.278244879
74	14	0.283917209	0.118152568	0.41635013
74	14	0.264167261	0.131651216	0.447580991
74	14	0.282511602	0.154698351	0.249372081
74	14	0.263794532	0.141342162	0.278244879
74	14	0.282877708	0.145179595	0.41635013
74	14	0.26312776	0.158678243	0.447580991
74	14	0.281472101	0.181725378	0.249372081
74	14	0.262755031	0.168369189	0.278244879
74	14	0.281838207	0.172206622	0.41635013
74	14	0.262088259	0.18570527	0.447580991
74	14	0.2804326	0.208752405	0.249372081
74	14	0.26171553	0.195396216	0.278244879
74	14	0.280798706	0.199233649	0.41635013
74	14	0.261048758	0.212732297	0.447580991
74	14	0.279393099	0.235779432	0.249372081
74	14	0.260676029	0.222423243	0.278244879
74	14	0.279759205	0.226260676	0.41635013
74	14	0.260009257	0.239759324	0.447580991
74	14	0.278353598	0.262806459	0.249372081
74	14	0.259636528	0.24945027	0.278244879
74	14	0.278719704	0.253287703	0.41635013
74	14	0.258969756	0.266786351	0.447580991
74	14	0.277314097	0.289833486	0.249372081
74	14	0.258597027	0.276477297	0.278244879
74	14	0.277680203	0.28031473	0.41635013
74	14	0.257930255	0.293813378	0.447580991
74	14	0.276274596	0.316860514	0.249372081
74	14	0.257557526	0.303504324	0.278244879
74	14	0.276640702	0.307341757	0.41635013
74	14	0.256890754	0.320840405	0.447580991
74	14	0.275235095	0.343887541	0.249372081
74	14	0.256518025	0.330531351	0.278244879
74	14	0.275601201	0.334368784	0.41635013
74	14	0.255851253	0.347867432	0.447580991
74	14	0.274195594	0.370914568	0.249372081
74	14	0.255478524	0.357558378	0.278244879
74	14	0.2745617	0.361395811	0.41635013
74	14	0.254811752	0.374894459	0.447580991
74	14	0.273156093	0.397941595	0.249372081
74	14	0.254439023	0.384585405	0.278244879
74	14	0.273522199	0.388422838	0.41635013
74	14	0.253772251	0.401921486	0.447580991
74	14	0.272116591	0.424968622	0.249372081
74	14	0.253399522	0.411612432	0.278244879
74	14	0.272482698	0.415449865	0.41635013
74	14	0.252732749	0.428948514	0.447580991
74	14	0.27107709	0.451995649	0.249372081
74	14	0.252360021	0.438639459	0.278244879
74	14	0.271443196	0.442476892	0.41635013
74	14	0.251693248	0.455975541	0.447580991
74	14	0.270037589	0.479022676	0.249372081
74	14	0.25132052	0.465666486	0.278244879
74	14	0.270403695	0.469503919	0.41635013
74	14	0.250653747	0.483002568	0.447580991
74	14	0.268998088	0.506049703	0.249372081
74	14	0.250281019	0.492693514	0.278244879
74	14	0.269364194	0.496530946	0.41635013
74	14	0.249614246	0.510029595	0.447580991
74	14	0.267958587	0.53307673	0.249372081
74	14	0.249241518	0.519720541	0.278244879
74	14	0.268324693	0.523557973	0.41635013
74	14	0.248574745	0.537056622	0.447580991
74	14	0.266919086	0.560103757	0.249372081
74	14	0.248202017	0.546747568	0.278244879
74	14	0.267285192	0.550585	0.41635013
74	14	0.247535244	0.564083649	0.447580991
74	14	0.265879585	0.587130784	0.249372081
74	14	0.247162516	0.573774595	0.278244879
74	14	0.266245691	0.577612027	0.41635013
74	14	0.246495743	0.591110676	0.447580991
74	14	0.264840084	0.614157811	0.249372081
74	14	0.246123015	0.600801622	0.278244879
74	14	0.26520619	0.604639054	0.41635013
74	14	0.245456242	0.618137703	0.447580991
74	14	0.263800583	0.641184838	0.249372081
74	14	0.245083514	0.627828649	0.278244879
74	14	0.264166689	0.631666081	0.41635013
74	14	0.244416741	0.64516473	0.447580991
74	14	0.262761082	0.668211865	0.249372081
74	14	0.244044012	0.654855676	0.278244879
74	14	0.263127188	0.658693108	0.41635013
74	14	0.24337724	0.672191757	0.447580991
74	14	0.261721581	0.695238892	0.249372081
74	14	0.243004511	0.681882703	0.278244879
74	14	0.262087687	0.685720135	0.41635013
74	14	0.242337739	0.699218784	0.447580991
74	14	0.26068208	0.722265919	0.249372081
74	14	0.24196501	0.70890973	0.278244879
74	14	0.261048186	0.712747162	0.41635013
74	14	0.241298238	0.726245811	0.447580991
74	14	0.259642579	0.749292946	0.249372081
74	14	0.240925509	0.735936757	0.278244879
74	14	0.260008685	0.739774189	0.41635013
74	14	0.240258737	0.753272838	0.447580991
74	14	0.258603078	0.776319973	0.249372081
74	14	0.239886008	0.762963784	0.278244879
74	14	0.258969184	0.766801216	0.41635013
74	14	0.239219236	0.780299865	0.447580991
74	14	0.257563577	0.803347	0.249372081
74	14	0.238846507	0.789990811	0.278244879
74	14	0.257929683	0.793828243	0.41635013
74	14	0.238179735	0.807326892	0.447580991
74	14	0.256524076	0.830374027	0.249372081
74	14	0.237807006	0.817017838	0.278244879
74	14	0.256890182	0.82085527	0.41635013
74	14	0.237140234	0.834353919	0.447580991
74	14	0.255484575	0.857401054	0.249372081
74	14	0.236767505	0.844044865	0.278244879
74	14	0.255850681	0.847882297	0.41635013
74	14	0.236100733	0.861380946	0.447580991
74	14	0.254445074	0.884428081	0.249372081
74	14	0.235728004	0.871071892	0.278244879
74	14	0.25481118	0.874909324	0.41635013
74	14	0.235061232	0.888407973	0.447580991
74	14	0.253405573	0.911455108	0.249372081
74	14	0.234688503	0.898098919	0.278244879
74	14	0.253771679	0.901936351	0.41635013
74	14	0.234021731	0.915435	0.447580991
74	14	0.252366072	0.938482135	0.249372081
74	14	0.233649002	0.925125946	0.278244879
74	14	0.252732178	0.928963378	0.41635013
74	14	0.23298223	0.942462027	0.447580991
74	14	0.251326571	0.965509162	0.249372081
74	14	0.232609501	0.952152973	0.278244879
74	14	0.251692677	0.955990405	0.41635013
74	14	0.231942729	0.969489054	0.447580991
74	14	0.25028707	0.992536189	0.249372081
74	14	0.23157	0.97918	0.278244879
74	14	0.250653176	0.983017432	0.41635013
74	14	0.230903228	0.996516081	0.447580991
74	14	0.326170646	0.019563216	0.249372081
74	14	0.307453576	0.006207027	0.278244879
74	14	0.326536752	0.010044459	0.41635013
74	14	0.306786804	0.023543108	0.447580991
74	14	0.325131144	0.046590243	0.249372081
74	14	0.306414075	0.033234054	0.278244879
74	14	0.325497251	0.037071486	0.41635013
74	14	0.305747302	0.050570135	0.447580991
74	14	0.324091643	0.07361727	0.249372081
74	14	0.305374574	0.060261081	0.278244879
74	14	0.324457749	0.064098514	0.41635013
74	14	0.304707801	0.077597162	0.447580991
74	14	0.323052142	0.100644297	0.249372081
74	14	0.304335073	0.087288108	0.278244879
74	14	0.323418248	0.091125541	0.41635013
74	14	0.3036683	0.104624189	0.447580991
74	14	0.322012641	0.127671324	0.249372081
74	14	0.303295572	0.114315135	0.278244879
74	14	0.322378747	0.118152568	0.41635013
74	14	0.302628799	0.131651216	0.447580991
74	14	0.32097314	0.154698351	0.249372081
74	14	0.302256071	0.141342162	0.278244879
74	14	0.321339246	0.145179595	0.41635013
74	14	0.301589298	0.158678243	0.447580991
74	14	0.319933639	0.181725378	0.249372081
74	14	0.30121657	0.168369189	0.278244879
74	14	0.320299745	0.172206622	0.41635013
74	14	0.300549797	0.18570527	0.447580991
74	14	0.318894138	0.208752405	0.249372081
74	14	0.300177069	0.195396216	0.278244879
74	14	0.319260244	0.199233649	0.41635013
74	14	0.299510296	0.212732297	0.447580991
74	14	0.317854637	0.235779432	0.249372081
74	14	0.299137568	0.222423243	0.278244879
74	14	0.318220743	0.226260676	0.41635013
74	14	0.298470795	0.239759324	0.447580991
74	14	0.316815136	0.262806459	0.249372081
74	14	0.298098067	0.24945027	0.278244879
74	14	0.317181242	0.253287703	0.41635013
74	14	0.297431294	0.266786351	0.447580991
74	14	0.315775635	0.289833486	0.249372081
74	14	0.297058565	0.276477297	0.278244879
74	14	0.316141741	0.28031473	0.41635013
74	14	0.296391793	0.293813378	0.447580991
74	14	0.314736134	0.316860514	0.249372081
74	14	0.296019064	0.303504324	0.278244879
74	14	0.31510224	0.307341757	0.41635013
74	14	0.295352292	0.320840405	0.447580991
74	14	0.313696633	0.343887541	0.249372081
74	14	0.294979563	0.330531351	0.278244879
74	14	0.314062739	0.334368784	0.41635013
74	14	0.294312791	0.347867432	0.447580991
74	14	0.312657132	0.370914568	0.249372081
74	14	0.293940062	0.357558378	0.278244879
74	14	0.313023238	0.361395811	0.41635013
74	14	0.29327329	0.374894459	0.447580991
74	14	0.311617631	0.397941595	0.249372081
74	14	0.292900561	0.384585405	0.278244879
74	14	0.311983737	0.388422838	0.41635013
74	14	0.292233789	0.401921486	0.447580991
74	14	0.31057813	0.424968622	0.249372081
74	14	0.29186106	0.411612432	0.278244879
74	14	0.310944236	0.415449865	0.41635013
74	14	0.291194288	0.428948514	0.447580991
74	14	0.309538629	0.451995649	0.249372081
74	14	0.290821559	0.438639459	0.278244879
74	14	0.309904735	0.442476892	0.41635013
74	14	0.290154787	0.455975541	0.447580991
74	14	0.308499128	0.479022676	0.249372081
74	14	0.289782058	0.465666486	0.278244879
74	14	0.308865234	0.469503919	0.41635013
74	14	0.289115286	0.483002568	0.447580991
74	14	0.307459627	0.506049703	0.249372081
74	14	0.288742557	0.492693514	0.278244879
74	14	0.307825733	0.496530946	0.41635013
74	14	0.288075785	0.510029595	0.447580991
74	14	0.306420126	0.53307673	0.249372081
74	14	0.287703056	0.519720541	0.278244879
74	14	0.306786232	0.523557973	0.41635013
74	14	0.287036284	0.537056622	0.447580991
74	14	0.305380625	0.560103757	0.249372081
74	14	0.286663555	0.546747568	0.278244879
74	14	0.305746731	0.550585	0.41635013
74	14	0.285996783	0.564083649	0.447580991
74	14	0.304341124	0.587130784	0.249372081
74	14	0.285624054	0.573774595	0.278244879
74	14	0.30470723	0.577612027	0.41635013
74	14	0.284957282	0.591110676	0.447580991
74	14	0.303301623	0.614157811	0.249372081
74	14	0.284584553	0.600801622	0.278244879
74	14	0.303667729	0.604639054	0.41635013
74	14	0.283917781	0.618137703	0.447580991
74	14	0.302262122	0.641184838	0.249372081
74	14	0.283545052	0.627828649	0.278244879
74	14	0.302628228	0.631666081	0.41635013
74	14	0.28287828	0.64516473	0.447580991
74	14	0.301222621	0.668211865	0.249372081
74	14	0.282505551	0.654855676	0.278244879
74	14	0.301588727	0.658693108	0.41635013
74	14	0.281838779	0.672191757	0.447580991
74	14	0.30018312	0.695238892	0.249372081
74	14	0.28146605	0.681882703	0.278244879
74	14	0.300549226	0.685720135	0.41635013
74	14	0.280799278	0.699218784	0.447580991
74	14	0.299143619	0.722265919	0.249372081
74	14	0.280426549	0.70890973	0.278244879
74	14	0.299509725	0.712747162	0.41635013
74	14	0.279759777	0.726245811	0.447580991
74	14	0.298104117	0.749292946	0.249372081
74	14	0.279387048	0.735936757	0.278244879
74	14	0.298470223	0.739774189	0.41635013
74	14	0.278720275	0.753272838	0.447580991
74	14	0.297064616	0.776319973	0.249372081
74	14	0.278347547	0.762963784	0.278244879
74	14	0.297430722	0.766801216	0.41635013
74	14	0.277680774	0.780299865	0.447580991
74	14	0.296025115	0.803347	0.249372081
74	14	0.277308046	0.789990811	0.278244879
74	14	0.296391221	0.793828243	0.41635013
74	14	0.276641273	0.807326892	0.447580991
74	14	0.294985614	0.830374027	0.249372081
74	14	0.276268545	0.817017838	0.278244879
74	14	0.29535172	0.82085527	0.41635013
74	14	0.275601772	0.834353919	0.447580991
74	14	0.293946113	0.857401054	0.249372081
74	14	0.275229044	0.844044865	0.278244879
74	14	0.294312219	0.847882297	0.41635013
74	14	0.274562271	0.861380946	0.447580991
74	14	0.292906612	0.884428081	0.249372081
74	14	0.274189543	0.871071892	0.278244879
74	14	0.293272718	0.874909324	0.41635013
74	14	0.27352277	0.888407973	0.447580991
74	14	0.291867111	0.911455108	0.249372081
74	14	0.273150042	0.898098919	0.278244879
74	14	0.292233217	0.901936351	0.41635013
74	14	0.272483269	0.915435	0.447580991
74	14	0.29082761	0.938482135	0.249372081
74	14	0.272110541	0.925125946	0.278244879
74	14	0.291193716	0.928963378	0.41635013
74	14	0.271443768	0.942462027	0.447580991
74	14	0.289788109	0.965509162	0.249372081
74	14	0.27107104	0.952152973	0.278244879
74	14	0.290154215	0.955990405	0.41635013
74	14	0.270404267	0.969489054	0.447580991
74	14	0.288748608	0.992536189	0.249372081
74	14	0.270031538	0.97918	0.278244879
74	14	0.289114714	0.983017432	0.41635013
74	14	0.269364766	0.996516081	0.447580991
74	14	0.364632184	0.019563216	0.249372081
74	14	0.345915114	0.006207027	0.278244879
74	14	0.36499829	0.010044459	0.41635013
74	14	0.345248342	0.023543108	0.447580991
74	14	0.363592683	0.046590243	0.249372081
74	14	0.344875613	0.033234054	0.278244879
74	14	0.363958789	0.037071486	0.41635013
74	14	0.344208841	0.050570135	0.447580991
74	14	0.362553182	0.07361727	0.249372081
74	14	0.343836112	0.060261081	0.278244879
74	14	0.362919288	0.064098514	0.41635013
74	14	0.34316934	0.077597162	0.447580991
74	14	0.361513681	0.100644297	0.249372081
74	14	0.342796611	0.087288108	0.278244879
74	14	0.361879787	0.091125541	0.41635013
74	14	0.342129839	0.104624189	0.447580991
74	14	0.36047418	0.127671324	0.249372081
74	14	0.34175711	0.114315135	0.278244879
74	14	0.360840286	0.118152568	0.41635013
74	14	0.341090338	0.131651216	0.447580991
74	14	0.359434679	0.154698351	0.249372081
74	14	0.340717609	0.141342162	0.278244879
74	14	0.359800785	0.145179595	0.41635013
74	14	0.340050837	0.158678243	0.447580991
74	14	0.358395178	0.181725378	0.249372081
74	14	0.339678108	0.168369189	0.278244879
74	14	0.358761284	0.172206622	0.41635013
74	14	0.339011336	0.18570527	0.447580991
74	14	0.357355677	0.208752405	0.249372081
74	14	0.338638607	0.195396216	0.278244879
74	14	0.357721783	0.199233649	0.41635013
74	14	0.337971835	0.212732297	0.447580991
74	14	0.356316176	0.235779432	0.249372081
74	14	0.337599106	0.222423243	0.278244879
74	14	0.356682282	0.226260676	0.41635013
74	14	0.336932334	0.239759324	0.447580991
74	14	0.355276675	0.262806459	0.249372081
74	14	0.336559605	0.24945027	0.278244879
74	14	0.355642781	0.253287703	0.41635013
74	14	0.335892833	0.266786351	0.447580991
74	14	0.354237174	0.289833486	0.249372081
74	14	0.335520104	0.276477297	0.278244879
74	14	0.35460328	0.28031473	0.41635013
74	14	0.334853332	0.293813378	0.447580991
74	14	0.353197673	0.316860514	0.249372081
74	14	0.334480603	0.303504324	0.278244879
74	14	0.353563779	0.307341757	0.41635013
74	14	0.333813831	0.320840405	0.447580991
74	14	0.352158172	0.343887541	0.249372081
74	14	0.333441102	0.330531351	0.278244879
74	14	0.352524278	0.334368784	0.41635013
74	14	0.33277433	0.347867432	0.447580991
74	14	0.35111867	0.370914568	0.249372081
74	14	0.332401601	0.357558378	0.278244879
74	14	0.351484777	0.361395811	0.41635013
74	14	0.331734828	0.374894459	0.447580991
74	14	0.350079169	0.397941595	0.249372081
74	14	0.3313621	0.384585405	0.278244879
74	14	0.350445275	0.388422838	0.41635013
74	14	0.330695327	0.401921486	0.447580991
74	14	0.349039668	0.424968622	0.249372081
74	14	0.330322599	0.411612432	0.278244879
74	14	0.349405774	0.415449865	0.41635013
74	14	0.329655826	0.428948514	0.447580991
74	14	0.348000167	0.451995649	0.249372081
74	14	0.329283098	0.438639459	0.278244879
74	14	0.348366273	0.442476892	0.41635013
74	14	0.328616325	0.455975541	0.447580991
74	14	0.346960666	0.479022676	0.249372081
74	14	0.328243597	0.465666486	0.278244879
74	14	0.347326772	0.469503919	0.41635013
74	14	0.327576824	0.483002568	0.447580991
74	14	0.345921165	0.506049703	0.249372081
74	14	0.327204096	0.492693514	0.278244879
74	14	0.346287271	0.496530946	0.41635013
74	14	0.326537323	0.510029595	0.447580991
74	14	0.344881664	0.53307673	0.249372081
74	14	0.326164595	0.519720541	0.278244879
74	14	0.34524777	0.523557973	0.41635013
74	14	0.325497822	0.537056622	0.447580991
74	14	0.343842163	0.560103757	0.249372081
74	14	0.325125094	0.546747568	0.278244879
74	14	0.344208269	0.550585	0.41635013
74	14	0.324458321	0.564083649	0.447580991
74	14	0.342802662	0.587130784	0.249372081
74	14	0.324085593	0.573774595	0.278244879
74	14	0.343168768	0.577612027	0.41635013
74	14	0.32341882	0.591110676	0.447580991
74	14	0.341763161	0.614157811	0.249372081
74	14	0.323046091	0.600801622	0.278244879
74	14	0.342129267	0.604639054	0.41635013
74	14	0.322379319	0.618137703	0.447580991
74	14	0.34072366	0.641184838	0.249372081
74	14	0.32200659	0.627828649	0.278244879
74	14	0.341089766	0.631666081	0.41635013
74	14	0.321339818	0.64516473	0.447580991
74	14	0.339684159	0.668211865	0.249372081
74	14	0.320967089	0.654855676	0.278244879
74	14	0.340050265	0.658693108	0.41635013
74	14	0.320300317	0.672191757	0.447580991
74	14	0.338644658	0.695238892	0.249372081
74	14	0.319927588	0.681882703	0.278244879
74	14	0.339010764	0.685720135	0.41635013
74	14	0.319260816	0.699218784	0.447580991
74	14	0.337605157	0.722265919	0.249372081
74	14	0.318888087	0.70890973	0.278244879
74	14	0.337971263	0.712747162	0.41635013
74	14	0.318221315	0.726245811	0.447580991
74	14	0.336565656	0.749292946	0.249372081
74	14	0.317848586	0.735936757	0.278244879
74	14	0.336931762	0.739774189	0.41635013
74	14	0.317181814	0.753272838	0.447580991
74	14	0.335526155	0.776319973	0.249372081
74	14	0.316809085	0.762963784	0.278244879
74	14	0.335892261	0.766801216	0.41635013
74	14	0.316142313	0.780299865	0.447580991
74	14	0.334486654	0.803347	0.249372081
74	14	0.315769584	0.789990811	0.278244879
74	14	0.33485276	0.793828243	0.41635013
74	14	0.315102812	0.807326892	0.447580991
74	14	0.333447153	0.830374027	0.249372081
74	14	0.314730083	0.817017838	0.278244879
74	14	0.333813259	0.82085527	0.41635013
74	14	0.314063311	0.834353919	0.447580991
74	14	0.332407652	0.857401054	0.249372081
74	14	0.313690582	0.844044865	0.278244879
74	14	0.332773758	0.847882297	0.41635013
74	14	0.31302381	0.861380946	0.447580991
74	14	0.331368151	0.884428081	0.249372081
74	14	0.312651081	0.871071892	0.278244879
74	14	0.331734257	0.874909324	0.41635013
74	14	0.311984309	0.888407973	0.447580991
74	14	0.33032865	0.911455108	0.249372081
74	14	0.31161158	0.898098919	0.278244879
74	14	0.330694756	0.901936351	0.41635013
74	14	0.310944808	0.915435	0.447580991
74	14	0.329289149	0.938482135	0.249372081
74	14	0.310572079	0.925125946	0.278244879
74	14	0.329655255	0.928963378	0.41635013
74	14	0.309905307	0.942462027	0.447580991
74	14	0.328249648	0.965509162	0.249372081
74	14	0.309532578	0.952152973	0.278244879
74	14	0.328615754	0.955990405	0.41635013
74	14	0.308865806	0.969489054	0.447580991
74	14	0.327210147	0.992536189	0.249372081
74	14	0.308493077	0.97918	0.278244879
74	14	0.327576253	0.983017432	0.41635013
74	14	0.307826305	0.996516081	0.447580991
74	14	0.403093722	0.019563216	0.249372081
74	14	0.384376653	0.006207027	0.278244879
74	14	0.403459828	0.010044459	0.41635013
74	14	0.38370988	0.023543108	0.447580991
74	14	0.402054221	0.046590243	0.249372081
74	14	0.383337152	0.033234054	0.278244879
74	14	0.402420327	0.037071486	0.41635013
74	14	0.382670379	0.050570135	0.447580991
74	14	0.40101472	0.07361727	0.249372081
74	14	0.382297651	0.060261081	0.278244879
74	14	0.401380826	0.064098514	0.41635013
74	14	0.381630878	0.077597162	0.447580991
74	14	0.399975219	0.100644297	0.249372081
74	14	0.38125815	0.087288108	0.278244879
74	14	0.400341325	0.091125541	0.41635013
74	14	0.380591377	0.104624189	0.447580991
74	14	0.398935718	0.127671324	0.249372081
74	14	0.380218649	0.114315135	0.278244879
74	14	0.399301824	0.118152568	0.41635013
74	14	0.379551876	0.131651216	0.447580991
74	14	0.397896217	0.154698351	0.249372081
74	14	0.379179148	0.141342162	0.278244879
74	14	0.398262323	0.145179595	0.41635013
74	14	0.378512375	0.158678243	0.447580991
74	14	0.396856716	0.181725378	0.249372081
74	14	0.378139647	0.168369189	0.278244879
74	14	0.397222822	0.172206622	0.41635013
74	14	0.377472874	0.18570527	0.447580991
74	14	0.395817215	0.208752405	0.249372081
74	14	0.377100146	0.195396216	0.278244879
74	14	0.396183321	0.199233649	0.41635013
74	14	0.376433373	0.212732297	0.447580991
74	14	0.394777714	0.235779432	0.249372081
74	14	0.376060644	0.222423243	0.278244879
74	14	0.39514382	0.226260676	0.41635013
74	14	0.375393872	0.239759324	0.447580991
74	14	0.393738213	0.262806459	0.249372081
74	14	0.375021143	0.24945027	0.278244879
74	14	0.394104319	0.253287703	0.41635013
74	14	0.374354371	0.266786351	0.447580991
74	14	0.392698712	0.289833486	0.249372081
74	14	0.373981642	0.276477297	0.278244879
74	14	0.393064818	0.28031473	0.41635013
74	14	0.37331487	0.293813378	0.447580991
74	14	0.391659211	0.316860514	0.249372081
74	14	0.372942141	0.303504324	0.278244879
74	14	0.392025317	0.307341757	0.41635013
74	14	0.372275369	0.320840405	0.447580991
74	14	0.39061971	0.343887541	0.249372081
74	14	0.37190264	0.330531351	0.278244879
74	14	0.390985816	0.334368784	0.41635013
74	14	0.371235868	0.347867432	0.447580991
74	14	0.389580209	0.370914568	0.249372081
74	14	0.370863139	0.357558378	0.278244879
74	14	0.389946315	0.361395811	0.41635013
74	14	0.370196367	0.374894459	0.447580991
74	14	0.388540708	0.397941595	0.249372081
74	14	0.369823638	0.384585405	0.278244879
74	14	0.388906814	0.388422838	0.41635013
74	14	0.369156866	0.401921486	0.447580991
74	14	0.387501207	0.424968622	0.249372081
74	14	0.368784137	0.411612432	0.278244879
74	14	0.387867313	0.415449865	0.41635013
74	14	0.368117365	0.428948514	0.447580991
74	14	0.386461706	0.451995649	0.249372081
74	14	0.367744636	0.438639459	0.278244879
74	14	0.386827812	0.442476892	0.41635013
74	14	0.367077864	0.455975541	0.447580991
74	14	0.385422205	0.479022676	0.249372081
74	14	0.366705135	0.465666486	0.278244879
74	14	0.385788311	0.469503919	0.41635013
74	14	0.366038363	0.483002568	0.447580991
74	14	0.384382704	0.506049703	0.249372081
74	14	0.365665634	0.492693514	0.278244879
74	14	0.38474881	0.496530946	0.41635013
74	14	0.364998862	0.510029595	0.447580991
74	14	0.383343203	0.53307673	0.249372081
74	14	0.364626133	0.519720541	0.278244879
74	14	0.383709309	0.523557973	0.41635013
74	14	0.363959361	0.537056622	0.447580991
74	14	0.382303702	0.560103757	0.249372081
74	14	0.363586632	0.546747568	0.278244879
74	14	0.382669808	0.550585	0.41635013
74	14	0.36291986	0.564083649	0.447580991
74	14	0.381264201	0.587130784	0.249372081
74	14	0.362547131	0.573774595	0.278244879
74	14	0.381630307	0.577612027	0.41635013
74	14	0.361880359	0.591110676	0.447580991
74	14	0.3802247	0.614157811	0.249372081
74	14	0.36150763	0.600801622	0.278244879
74	14	0.380590806	0.604639054	0.41635013
74	14	0.360840858	0.618137703	0.447580991
74	14	0.379185199	0.641184838	0.249372081
74	14	0.360468129	0.627828649	0.278244879
74	14	0.379551305	0.631666081	0.41635013
74	14	0.359801357	0.64516473	0.447580991
74	14	0.378145698	0.668211865	0.249372081
74	14	0.359428628	0.654855676	0.278244879
74	14	0.378511804	0.658693108	0.41635013
74	14	0.358761856	0.672191757	0.447580991
74	14	0.377106196	0.695238892	0.249372081
74	14	0.358389127	0.681882703	0.278244879
74	14	0.377472302	0.685720135	0.41635013
74	14	0.357722354	0.699218784	0.447580991
74	14	0.376066695	0.722265919	0.249372081
74	14	0.357349626	0.70890973	0.278244879
74	14	0.376432801	0.712747162	0.41635013
74	14	0.356682853	0.726245811	0.447580991
74	14	0.375027194	0.749292946	0.249372081
74	14	0.356310125	0.735936757	0.278244879
74	14	0.3753933	0.739774189	0.41635013
74	14	0.355643352	0.753272838	0.447580991
74	14	0.373987693	0.776319973	0.249372081
74	14	0.355270624	0.762963784	0.278244879
74	14	0.374353799	0.766801216	0.41635013
74	14	0.354603851	0.780299865	0.447580991
74	14	0.372948192	0.803347	0.249372081
74	14	0.354231123	0.789990811	0.278244879
74	14	0.373314298	0.793828243	0.41635013
74	14	0.35356435	0.807326892	0.447580991
74	14	0.371908691	0.830374027	0.249372081
74	14	0.353191622	0.817017838	0.278244879
74	14	0.372274797	0.82085527	0.41635013
74	14	0.352524849	0.834353919	0.447580991
74	14	0.37086919	0.857401054	0.249372081
74	14	0.352152121	0.844044865	0.278244879
74	14	0.371235296	0.847882297	0.41635013
74	14	0.351485348	0.861380946	0.447580991
74	14	0.369829689	0.884428081	0.249372081
74	14	0.35111262	0.871071892	0.278244879
74	14	0.370195795	0.874909324	0.41635013
74	14	0.350445847	0.888407973	0.447580991
74	14	0.368790188	0.911455108	0.249372081
74	14	0.350073119	0.898098919	0.278244879
74	14	0.369156294	0.901936351	0.41635013
74	14	0.349406346	0.915435	0.447580991
74	14	0.367750687	0.938482135	0.249372081
74	14	0.349033617	0.925125946	0.278244879
74	14	0.368116793	0.928963378	0.41635013
74	14	0.348366845	0.942462027	0.447580991
74	14	0.366711186	0.965509162	0.249372081
74	14	0.347994116	0.952152973	0.278244879
74	14	0.367077292	0.955990405	0.41635013
74	14	0.347327344	0.969489054	0.447580991
74	14	0.365671685	0.992536189	0.249372081
74	14	0.346954615	0.97918	0.278244879
74	14	0.366037791	0.983017432	0.41635013
74	14	0.346287843	0.996516081	0.447580991
74	14	0.441555261	0.019563216	0.249372081
74	14	0.422838191	0.006207027	0.278244879
74	14	0.441921367	0.010044459	0.41635013
74	14	0.422171419	0.023543108	0.447580991
74	14	0.44051576	0.046590243	0.249372081
74	14	0.42179869	0.033234054	0.278244879
74	14	0.440881866	0.037071486	0.41635013
74	14	0.421131918	0.050570135	0.447580991
74	14	0.439476259	0.07361727	0.249372081
74	14	0.420759189	0.060261081	0.278244879
74	14	0.439842365	0.064098514	0.41635013
74	14	0.420092417	0.077597162	0.447580991
74	14	0.438436758	0.100644297	0.249372081
74	14	0.419719688	0.087288108	0.278244879
74	14	0.438802864	0.091125541	0.41635013
74	14	0.419052916	0.104624189	0.447580991
74	14	0.437397257	0.127671324	0.249372081
74	14	0.418680187	0.114315135	0.278244879
74	14	0.437763363	0.118152568	0.41635013
74	14	0.418013415	0.131651216	0.447580991
74	14	0.436357756	0.154698351	0.249372081
74	14	0.417640686	0.141342162	0.278244879
74	14	0.436723862	0.145179595	0.41635013
74	14	0.416973914	0.158678243	0.447580991
74	14	0.435318255	0.181725378	0.249372081
74	14	0.416601185	0.168369189	0.278244879
74	14	0.435684361	0.172206622	0.41635013
74	14	0.415934413	0.18570527	0.447580991
74	14	0.434278754	0.208752405	0.249372081
74	14	0.415561684	0.195396216	0.278244879
74	14	0.43464486	0.199233649	0.41635013
74	14	0.414894912	0.212732297	0.447580991
74	14	0.433239253	0.235779432	0.249372081
74	14	0.414522183	0.222423243	0.278244879
74	14	0.433605359	0.226260676	0.41635013
74	14	0.413855411	0.239759324	0.447580991
74	14	0.432199752	0.262806459	0.249372081
74	14	0.413482682	0.24945027	0.278244879
74	14	0.432565858	0.253287703	0.41635013
74	14	0.41281591	0.266786351	0.447580991
74	14	0.431160251	0.289833486	0.249372081
74	14	0.412443181	0.276477297	0.278244879
74	14	0.431526357	0.28031473	0.41635013
74	14	0.411776409	0.293813378	0.447580991
74	14	0.430120749	0.316860514	0.249372081
74	14	0.41140368	0.303504324	0.278244879
74	14	0.430486856	0.307341757	0.41635013
74	14	0.410736907	0.320840405	0.447580991
74	14	0.429081248	0.343887541	0.249372081
74	14	0.410364179	0.330531351	0.278244879
74	14	0.429447354	0.334368784	0.41635013
74	14	0.409697406	0.347867432	0.447580991
74	14	0.428041747	0.370914568	0.249372081
74	14	0.409324678	0.357558378	0.278244879
74	14	0.428407853	0.361395811	0.41635013
74	14	0.408657905	0.374894459	0.447580991
74	14	0.427002246	0.397941595	0.249372081
74	14	0.408285177	0.384585405	0.278244879
74	14	0.427368352	0.388422838	0.41635013
74	14	0.407618404	0.401921486	0.447580991
74	14	0.425962745	0.424968622	0.249372081
74	14	0.407245676	0.411612432	0.278244879
74	14	0.426328851	0.415449865	0.41635013
74	14	0.406578903	0.428948514	0.447580991
74	14	0.424923244	0.451995649	0.249372081
74	14	0.406206175	0.438639459	0.278244879
74	14	0.42528935	0.442476892	0.41635013
74	14	0.405539402	0.455975541	0.447580991
74	14	0.423883743	0.479022676	0.249372081
74	14	0.405166674	0.465666486	0.278244879
74	14	0.424249849	0.469503919	0.41635013
74	14	0.404499901	0.483002568	0.447580991
74	14	0.422844242	0.506049703	0.249372081
74	14	0.404127173	0.492693514	0.278244879
74	14	0.423210348	0.496530946	0.41635013
74	14	0.4034604	0.510029595	0.447580991
74	14	0.421804741	0.53307673	0.249372081
74	14	0.403087672	0.519720541	0.278244879
74	14	0.422170847	0.523557973	0.41635013
74	14	0.402420899	0.537056622	0.447580991
74	14	0.42076524	0.560103757	0.249372081
74	14	0.40204817	0.546747568	0.278244879
74	14	0.421131346	0.550585	0.41635013
74	14	0.401381398	0.564083649	0.447580991
74	14	0.419725739	0.587130784	0.249372081
74	14	0.401008669	0.573774595	0.278244879
74	14	0.420091845	0.577612027	0.41635013
74	14	0.400341897	0.591110676	0.447580991
74	14	0.418686238	0.614157811	0.249372081
74	14	0.399969168	0.600801622	0.278244879
74	14	0.419052344	0.604639054	0.41635013
74	14	0.399302396	0.618137703	0.447580991
74	14	0.417646737	0.641184838	0.249372081
74	14	0.398929667	0.627828649	0.278244879
74	14	0.418012843	0.631666081	0.41635013
74	14	0.398262895	0.64516473	0.447580991
74	14	0.416607236	0.668211865	0.249372081
74	14	0.397890166	0.654855676	0.278244879
74	14	0.416973342	0.658693108	0.41635013
74	14	0.397223394	0.672191757	0.447580991
74	14	0.415567735	0.695238892	0.249372081
74	14	0.396850665	0.681882703	0.278244879
74	14	0.415933841	0.685720135	0.41635013
74	14	0.396183893	0.699218784	0.447580991
74	14	0.414528234	0.722265919	0.249372081
74	14	0.395811164	0.70890973	0.278244879
74	14	0.41489434	0.712747162	0.41635013
74	14	0.395144392	0.726245811	0.447580991
74	14	0.413488733	0.749292946	0.249372081
74	14	0.394771663	0.735936757	0.278244879
74	14	0.413854839	0.739774189	0.41635013
74	14	0.394104891	0.753272838	0.447580991
74	14	0.412449232	0.776319973	0.249372081
74	14	0.393732162	0.762963784	0.278244879
74	14	0.412815338	0.766801216	0.41635013
74	14	0.39306539	0.780299865	0.447580991
74	14	0.411409731	0.803347	0.249372081
74	14	0.392692661	0.789990811	0.278244879
74	14	0.411775837	0.793828243	0.41635013
74	14	0.392025889	0.807326892	0.447580991
74	14	0.41037023	0.830374027	0.249372081
74	14	0.39165316	0.817017838	0.278244879
74	14	0.410736336	0.82085527	0.41635013
74	14	0.390986388	0.834353919	0.447580991
74	14	0.409330729	0.857401054	0.249372081
74	14	0.390613659	0.844044865	0.278244879
74	14	0.409696835	0.847882297	0.41635013
74	14	0.389946887	0.861380946	0.447580991
74	14	0.408291228	0.884428081	0.249372081
74	14	0.389574158	0.871071892	0.278244879
74	14	0.408657334	0.874909324	0.41635013
74	14	0.388907386	0.888407973	0.447580991
74	14	0.407251727	0.911455108	0.249372081
74	14	0.388534657	0.898098919	0.278244879
74	14	0.407617833	0.901936351	0.41635013
74	14	0.387867885	0.915435	0.447580991
74	14	0.406212226	0.938482135	0.249372081
74	14	0.387495156	0.925125946	0.278244879
74	14	0.406578332	0.928963378	0.41635013
74	14	0.386828384	0.942462027	0.447580991
74	14	0.405172725	0.965509162	0.249372081
74	14	0.386455655	0.952152973	0.278244879
74	14	0.405538831	0.955990405	0.41635013
74	14	0.385788883	0.969489054	0.447580991
74	14	0.404133223	0.992536189	0.249372081
74	14	0.385416154	0.97918	0.278244879
74	14	0.40449933	0.983017432	0.41635013
74	14	0.384749381	0.996516081	0.447580991
74	14	0.480016799	0.019563216	0.249372081
74	14	0.46129973	0.006207027	0.278244879
74	14	0.480382905	0.010044459	0.41635013
74	14	0.460632957	0.023543108	0.447580991
74	14	0.478977298	0.046590243	0.249372081
74	14	0.460260229	0.033234054	0.278244879
74	14	0.479343404	0.037071486	0.41635013
74	14	0.459593456	0.050570135	0.447580991
74	14	0.477937797	0.07361727	0.249372081
74	14	0.459220728	0.060261081	0.278244879
74	14	0.478303903	0.064098514	0.41635013
74	14	0.458553955	0.077597162	0.447580991
74	14	0.476898296	0.100644297	0.249372081
74	14	0.458181227	0.087288108	0.278244879
74	14	0.477264402	0.091125541	0.41635013
74	14	0.457514454	0.104624189	0.447580991
74	14	0.475858795	0.127671324	0.249372081
74	14	0.457141726	0.114315135	0.278244879
74	14	0.476224901	0.118152568	0.41635013
74	14	0.456474953	0.131651216	0.447580991
74	14	0.474819294	0.154698351	0.249372081
74	14	0.456102225	0.141342162	0.278244879
74	14	0.4751854	0.145179595	0.41635013
74	14	0.455435452	0.158678243	0.447580991
74	14	0.473779793	0.181725378	0.249372081
74	14	0.455062723	0.168369189	0.278244879
74	14	0.474145899	0.172206622	0.41635013
74	14	0.454395951	0.18570527	0.447580991
74	14	0.472740292	0.208752405	0.249372081
74	14	0.454023222	0.195396216	0.278244879
74	14	0.473106398	0.199233649	0.41635013
74	14	0.45335645	0.212732297	0.447580991
74	14	0.471700791	0.235779432	0.249372081
74	14	0.452983721	0.222423243	0.278244879
74	14	0.472066897	0.226260676	0.41635013
74	14	0.452316949	0.239759324	0.447580991
74	14	0.47066129	0.262806459	0.249372081
74	14	0.45194422	0.24945027	0.278244879
74	14	0.471027396	0.253287703	0.41635013
74	14	0.451277448	0.266786351	0.447580991
74	14	0.469621789	0.289833486	0.249372081
74	14	0.450904719	0.276477297	0.278244879
74	14	0.469987895	0.28031473	0.41635013
74	14	0.450237947	0.293813378	0.447580991
74	14	0.468582288	0.316860514	0.249372081
74	14	0.449865218	0.303504324	0.278244879
74	14	0.468948394	0.307341757	0.41635013
74	14	0.449198446	0.320840405	0.447580991
74	14	0.467542787	0.343887541	0.249372081
74	14	0.448825717	0.330531351	0.278244879
74	14	0.467908893	0.334368784	0.41635013
74	14	0.448158945	0.347867432	0.447580991
74	14	0.466503286	0.370914568	0.249372081
74	14	0.447786216	0.357558378	0.278244879
74	14	0.466869392	0.361395811	0.41635013
74	14	0.447119444	0.374894459	0.447580991
74	14	0.465463785	0.397941595	0.249372081
74	14	0.446746715	0.384585405	0.278244879
74	14	0.465829891	0.388422838	0.41635013
74	14	0.446079943	0.401921486	0.447580991
74	14	0.464424284	0.424968622	0.249372081
74	14	0.445707214	0.411612432	0.278244879
74	14	0.46479039	0.415449865	0.41635013
74	14	0.445040442	0.428948514	0.447580991
74	14	0.463384783	0.451995649	0.249372081
74	14	0.444667713	0.438639459	0.278244879
74	14	0.463750889	0.442476892	0.41635013
74	14	0.444000941	0.455975541	0.447580991
74	14	0.462345282	0.479022676	0.249372081
74	14	0.443628212	0.465666486	0.278244879
74	14	0.462711388	0.469503919	0.41635013
74	14	0.44296144	0.483002568	0.447580991
74	14	0.461305781	0.506049703	0.249372081
74	14	0.442588711	0.492693514	0.278244879
74	14	0.461671887	0.496530946	0.41635013
74	14	0.441921939	0.510029595	0.447580991
74	14	0.46026628	0.53307673	0.249372081
74	14	0.44154921	0.519720541	0.278244879
74	14	0.460632386	0.523557973	0.41635013
74	14	0.440882438	0.537056622	0.447580991
74	14	0.459226779	0.560103757	0.249372081
74	14	0.440509709	0.546747568	0.278244879
74	14	0.459592885	0.550585	0.41635013
74	14	0.439842937	0.564083649	0.447580991
74	14	0.458187278	0.587130784	0.249372081
74	14	0.439470208	0.573774595	0.278244879
74	14	0.458553384	0.577612027	0.41635013
74	14	0.438803436	0.591110676	0.447580991
74	14	0.457147777	0.614157811	0.249372081
74	14	0.438430707	0.600801622	0.278244879
74	14	0.457513883	0.604639054	0.41635013
74	14	0.437763935	0.618137703	0.447580991
74	14	0.456108275	0.641184838	0.249372081
74	14	0.437391206	0.627828649	0.278244879
74	14	0.456474381	0.631666081	0.41635013
74	14	0.436724433	0.64516473	0.447580991
74	14	0.455068774	0.668211865	0.249372081
74	14	0.436351705	0.654855676	0.278244879
74	14	0.45543488	0.658693108	0.41635013
74	14	0.435684932	0.672191757	0.447580991
74	14	0.454029273	0.695238892	0.249372081
74	14	0.435312204	0.681882703	0.278244879
74	14	0.454395379	0.685720135	0.41635013
74	14	0.434645431	0.699218784	0.447580991
74	14	0.452989772	0.722265919	0.249372081
74	14	0.434272703	0.70890973	0.278244879
74	14	0.453355878	0.712747162	0.41635013
74	14	0.43360593	0.726245811	0.447580991
74	14	0.451950271	0.749292946	0.249372081
74	14	0.433233202	0.735936757	0.278244879
74	14	0.452316377	0.739774189	0.41635013
74	14	0.432566429	0.753272838	0.447580991
74	14	0.45091077	0.776319973	0.249372081
74	14	0.432193701	0.762963784	0.278244879
74	14	0.451276876	0.766801216	0.41635013
74	14	0.431526928	0.780299865	0.447580991
74	14	0.449871269	0.803347	0.249372081
74	14	0.4311542	0.789990811	0.278244879
74	14	0.450237375	0.793828243	0.41635013
74	14	0.430487427	0.807326892	0.447580991
74	14	0.448831768	0.830374027	0.249372081
74	14	0.430114699	0.817017838	0.278244879
74	14	0.449197874	0.82085527	0.41635013
74	14	0.429447926	0.834353919	0.447580991
74	14	0.447792267	0.857401054	0.249372081
74	14	0.429075198	0.844044865	0.278244879
74	14	0.448158373	0.847882297	0.41635013
74	14	0.428408425	0.861380946	0.447580991
74	14	0.446752766	0.884428081	0.249372081
74	14	0.428035696	0.871071892	0.278244879
74	14	0.447118872	0.874909324	0.41635013
74	14	0.427368924	0.888407973	0.447580991
74	14	0.445713265	0.911455108	0.249372081
74	14	0.426996195	0.898098919	0.278244879
74	14	0.446079371	0.901936351	0.41635013
74	14	0.426329423	0.915435	0.447580991
74	14	0.444673764	0.938482135	0.249372081
74	14	0.425956694	0.925125946	0.278244879
74	14	0.44503987	0.928963378	0.41635013
74	14	0.425289922	0.942462027	0.447580991
74	14	0.443634263	0.965509162	0.249372081
74	14	0.424917193	0.952152973	0.278244879
74	14	0.444000369	0.955990405	0.41635013
74	14	0.424250421	0.969489054	0.447580991
74	14	0.442594762	0.992536189	0.249372081
74	14	0.423877692	0.97918	0.278244879
74	14	0.442960868	0.983017432	0.41635013
74	14	0.42321092	0.996516081	0.447580991
74	14	0.518478338	0.019563216	0.249372081
74	14	0.499761268	0.006207027	0.278244879
74	14	0.518844444	0.010044459	0.41635013
74	14	0.499094496	0.023543108	0.447580991
74	14	0.517438837	0.046590243	0.249372081
74	14	0.498721767	0.033234054	0.278244879
74	14	0.517804943	0.037071486	0.41635013
74	14	0.498054995	0.050570135	0.447580991
74	14	0.516399336	0.07361727	0.249372081
74	14	0.497682266	0.060261081	0.278244879
74	14	0.516765442	0.064098514	0.41635013
74	14	0.497015494	0.077597162	0.447580991
74	14	0.515359835	0.100644297	0.249372081
74	14	0.496642765	0.087288108	0.278244879
74	14	0.515725941	0.091125541	0.41635013
74	14	0.495975993	0.104624189	0.447580991
74	14	0.514320334	0.127671324	0.249372081
74	14	0.495603264	0.114315135	0.278244879
74	14	0.51468644	0.118152568	0.41635013
74	14	0.494936492	0.131651216	0.447580991
74	14	0.513280833	0.154698351	0.249372081
74	14	0.494563763	0.141342162	0.278244879
74	14	0.513646939	0.145179595	0.41635013
74	14	0.493896991	0.158678243	0.447580991
74	14	0.512241332	0.181725378	0.249372081
74	14	0.493524262	0.168369189	0.278244879
74	14	0.512607438	0.172206622	0.41635013
74	14	0.49285749	0.18570527	0.447580991
74	14	0.511201831	0.208752405	0.249372081
74	14	0.492484761	0.195396216	0.278244879
74	14	0.511567937	0.199233649	0.41635013
74	14	0.491817989	0.212732297	0.447580991
74	14	0.51016233	0.235779432	0.249372081
74	14	0.49144526	0.222423243	0.278244879
74	14	0.510528436	0.226260676	0.41635013
74	14	0.490778488	0.239759324	0.447580991
74	14	0.509122828	0.262806459	0.249372081
74	14	0.490405759	0.24945027	0.278244879
74	14	0.509488935	0.253287703	0.41635013
74	14	0.489738986	0.266786351	0.447580991
74	14	0.508083327	0.289833486	0.249372081
74	14	0.489366258	0.276477297	0.278244879
74	14	0.508449433	0.28031473	0.41635013
74	14	0.488699485	0.293813378	0.447580991
74	14	0.507043826	0.316860514	0.249372081
74	14	0.488326757	0.303504324	0.278244879
74	14	0.507409932	0.307341757	0.41635013
74	14	0.487659984	0.320840405	0.447580991
74	14	0.506004325	0.343887541	0.249372081
74	14	0.487287256	0.330531351	0.278244879
74	14	0.506370431	0.334368784	0.41635013
74	14	0.486620483	0.347867432	0.447580991
74	14	0.504964824	0.370914568	0.249372081
74	14	0.486247755	0.357558378	0.278244879
74	14	0.50533093	0.361395811	0.41635013
74	14	0.485580982	0.374894459	0.447580991
74	14	0.503925323	0.397941595	0.249372081
74	14	0.485208254	0.384585405	0.278244879
74	14	0.504291429	0.388422838	0.41635013
74	14	0.484541481	0.401921486	0.447580991
74	14	0.502885822	0.424968622	0.249372081
74	14	0.484168753	0.411612432	0.278244879
74	14	0.503251928	0.415449865	0.41635013
74	14	0.48350198	0.428948514	0.447580991
74	14	0.501846321	0.451995649	0.249372081
74	14	0.483129252	0.438639459	0.278244879
74	14	0.502212427	0.442476892	0.41635013
74	14	0.482462479	0.455975541	0.447580991
74	14	0.50080682	0.479022676	0.249372081
74	14	0.482089751	0.465666486	0.278244879
74	14	0.501172926	0.469503919	0.41635013
74	14	0.481422978	0.483002568	0.447580991
74	14	0.499767319	0.506049703	0.249372081
74	14	0.481050249	0.492693514	0.278244879
74	14	0.500133425	0.496530946	0.41635013
74	14	0.480383477	0.510029595	0.447580991
74	14	0.498727818	0.53307673	0.249372081
74	14	0.480010748	0.519720541	0.278244879
74	14	0.499093924	0.523557973	0.41635013
74	14	0.479343976	0.537056622	0.447580991
74	14	0.497688317	0.560103757	0.249372081
74	14	0.478971247	0.546747568	0.278244879
74	14	0.498054423	0.550585	0.41635013
74	14	0.478304475	0.564083649	0.447580991
74	14	0.496648816	0.587130784	0.249372081
74	14	0.477931746	0.573774595	0.278244879
74	14	0.497014922	0.577612027	0.41635013
74	14	0.477264974	0.591110676	0.447580991
74	14	0.495609315	0.614157811	0.249372081
74	14	0.476892245	0.600801622	0.278244879
74	14	0.495975421	0.604639054	0.41635013
74	14	0.476225473	0.618137703	0.447580991
74	14	0.494569814	0.641184838	0.249372081
74	14	0.475852744	0.627828649	0.278244879
74	14	0.49493592	0.631666081	0.41635013
74	14	0.475185972	0.64516473	0.447580991
74	14	0.493530313	0.668211865	0.249372081
74	14	0.474813243	0.654855676	0.278244879
74	14	0.493896419	0.658693108	0.41635013
74	14	0.474146471	0.672191757	0.447580991
74	14	0.492490812	0.695238892	0.249372081
74	14	0.473773742	0.681882703	0.278244879
74	14	0.492856918	0.685720135	0.41635013
74	14	0.47310697	0.699218784	0.447580991
74	14	0.491451311	0.722265919	0.249372081
74	14	0.472734241	0.70890973	0.278244879
74	14	0.491817417	0.712747162	0.41635013
74	14	0.472067469	0.726245811	0.447580991
74	14	0.49041181	0.749292946	0.249372081
74	14	0.47169474	0.735936757	0.278244879
74	14	0.490777916	0.739774189	0.41635013
74	14	0.471027968	0.753272838	0.447580991
74	14	0.489372309	0.776319973	0.249372081
74	14	0.470655239	0.762963784	0.278244879
74	14	0.489738415	0.766801216	0.41635013
74	14	0.469988467	0.780299865	0.447580991
74	14	0.488332808	0.803347	0.249372081
74	14	0.469615738	0.789990811	0.278244879
74	14	0.488698914	0.793828243	0.41635013
74	14	0.468948966	0.807326892	0.447580991
74	14	0.487293307	0.830374027	0.249372081
74	14	0.468576237	0.817017838	0.278244879
74	14	0.487659413	0.82085527	0.41635013
74	14	0.467909465	0.834353919	0.447580991
74	14	0.486253806	0.857401054	0.249372081
74	14	0.467536736	0.844044865	0.278244879
74	14	0.486619912	0.847882297	0.41635013
74	14	0.466869964	0.861380946	0.447580991
74	14	0.485214305	0.884428081	0.249372081
74	14	0.466497235	0.871071892	0.278244879
74	14	0.485580411	0.874909324	0.41635013
74	14	0.465830463	0.888407973	0.447580991
74	14	0.484174804	0.911455108	0.249372081
74	14	0.465457734	0.898098919	0.278244879
74	14	0.48454091	0.901936351	0.41635013
74	14	0.464790962	0.915435	0.447580991
74	14	0.483135302	0.938482135	0.249372081
74	14	0.464418233	0.925125946	0.278244879
74	14	0.483501409	0.928963378	0.41635013
74	14	0.46375146	0.942462027	0.447580991
74	14	0.482095801	0.965509162	0.249372081
74	14	0.463378732	0.952152973	0.278244879
74	14	0.482461907	0.955990405	0.41635013
74	14	0.462711959	0.969489054	0.447580991
74	14	0.4810563	0.992536189	0.249372081
74	14	0.462339231	0.97918	0.278244879
74	14	0.481422406	0.983017432	0.41635013
74	14	0.461672458	0.996516081	0.447580991
74	14	0.556939876	0.019563216	0.249372081
74	14	0.538222807	0.006207027	0.278244879
74	14	0.557305982	0.010044459	0.41635013
74	14	0.537556034	0.023543108	0.447580991
74	14	0.555900375	0.046590243	0.249372081
74	14	0.537183306	0.033234054	0.278244879
74	14	0.556266481	0.037071486	0.41635013
74	14	0.536516533	0.050570135	0.447580991
74	14	0.554860874	0.07361727	0.249372081
74	14	0.536143805	0.060261081	0.278244879
74	14	0.55522698	0.064098514	0.41635013
74	14	0.535477032	0.077597162	0.447580991
74	14	0.553821373	0.100644297	0.249372081
74	14	0.535104304	0.087288108	0.278244879
74	14	0.554187479	0.091125541	0.41635013
74	14	0.534437531	0.104624189	0.447580991
74	14	0.552781872	0.127671324	0.249372081
74	14	0.534064802	0.114315135	0.278244879
74	14	0.553147978	0.118152568	0.41635013
74	14	0.53339803	0.131651216	0.447580991
74	14	0.551742371	0.154698351	0.249372081
74	14	0.533025301	0.141342162	0.278244879
74	14	0.552108477	0.145179595	0.41635013
74	14	0.532358529	0.158678243	0.447580991
74	14	0.55070287	0.181725378	0.249372081
74	14	0.5319858	0.168369189	0.278244879
74	14	0.551068976	0.172206622	0.41635013
74	14	0.531319028	0.18570527	0.447580991
74	14	0.549663369	0.208752405	0.249372081
74	14	0.530946299	0.195396216	0.278244879
74	14	0.550029475	0.199233649	0.41635013
74	14	0.530279527	0.212732297	0.447580991
74	14	0.548623868	0.235779432	0.249372081
74	14	0.529906798	0.222423243	0.278244879
74	14	0.548989974	0.226260676	0.41635013
74	14	0.529240026	0.239759324	0.447580991
74	14	0.547584367	0.262806459	0.249372081
74	14	0.528867297	0.24945027	0.278244879
74	14	0.547950473	0.253287703	0.41635013
74	14	0.528200525	0.266786351	0.447580991
74	14	0.546544866	0.289833486	0.249372081
74	14	0.527827796	0.276477297	0.278244879
74	14	0.546910972	0.28031473	0.41635013
74	14	0.527161024	0.293813378	0.447580991
74	14	0.545505365	0.316860514	0.249372081
74	14	0.526788295	0.303504324	0.278244879
74	14	0.545871471	0.307341757	0.41635013
74	14	0.526121523	0.320840405	0.447580991
74	14	0.544465864	0.343887541	0.249372081
74	14	0.525748794	0.330531351	0.278244879
74	14	0.54483197	0.334368784	0.41635013
74	14	0.525082022	0.347867432	0.447580991
74	14	0.543426363	0.370914568	0.249372081
74	14	0.524709293	0.357558378	0.278244879
74	14	0.543792469	0.361395811	0.41635013
74	14	0.524042521	0.374894459	0.447580991
74	14	0.542386862	0.397941595	0.249372081
74	14	0.523669792	0.384585405	0.278244879
74	14	0.542752968	0.388422838	0.41635013
74	14	0.52300302	0.401921486	0.447580991
74	14	0.541347361	0.424968622	0.249372081
74	14	0.522630291	0.411612432	0.278244879
74	14	0.541713467	0.415449865	0.41635013
74	14	0.521963519	0.428948514	0.447580991
74	14	0.54030786	0.451995649	0.249372081
74	14	0.52159079	0.438639459	0.278244879
74	14	0.540673966	0.442476892	0.41635013
74	14	0.520924018	0.455975541	0.447580991
74	14	0.539268359	0.479022676	0.249372081
74	14	0.520551289	0.465666486	0.278244879
74	14	0.539634465	0.469503919	0.41635013
74	14	0.519884517	0.483002568	0.447580991
74	14	0.538228858	0.506049703	0.249372081
74	14	0.519511788	0.492693514	0.278244879
74	14	0.538594964	0.496530946	0.41635013
74	14	0.518845016	0.510029595	0.447580991
74	14	0.537189357	0.53307673	0.249372081
74	14	0.518472287	0.519720541	0.278244879
74	14	0.537555463	0.523557973	0.41635013
74	14	0.517805515	0.537056622	0.447580991
74	14	0.536149856	0.560103757	0.249372081
74	14	0.517432786	0.546747568	0.278244879
74	14	0.536515962	0.550585	0.41635013
74	14	0.516766014	0.564083649	0.447580991
74	14	0.535110354	0.587130784	0.249372081
74	14	0.516393285	0.573774595	0.278244879
74	14	0.53547646	0.577612027	0.41635013
74	14	0.515726512	0.591110676	0.447580991
74	14	0.534070853	0.614157811	0.249372081
74	14	0.515353784	0.600801622	0.278244879
74	14	0.534436959	0.604639054	0.41635013
74	14	0.514687011	0.618137703	0.447580991
74	14	0.533031352	0.641184838	0.249372081
74	14	0.514314283	0.627828649	0.278244879
74	14	0.533397458	0.631666081	0.41635013
74	14	0.51364751	0.64516473	0.447580991
74	14	0.531991851	0.668211865	0.249372081
74	14	0.513274782	0.654855676	0.278244879
74	14	0.532357957	0.658693108	0.41635013
74	14	0.512608009	0.672191757	0.447580991
74	14	0.53095235	0.695238892	0.249372081
74	14	0.512235281	0.681882703	0.278244879
74	14	0.531318456	0.685720135	0.41635013
74	14	0.511568508	0.699218784	0.447580991
74	14	0.529912849	0.722265919	0.249372081
74	14	0.51119578	0.70890973	0.278244879
74	14	0.530278955	0.712747162	0.41635013
74	14	0.510529007	0.726245811	0.447580991
74	14	0.528873348	0.749292946	0.249372081
74	14	0.510156279	0.735936757	0.278244879
74	14	0.529239454	0.739774189	0.41635013
74	14	0.509489506	0.753272838	0.447580991
74	14	0.527833847	0.776319973	0.249372081
74	14	0.509116778	0.762963784	0.278244879
74	14	0.528199953	0.766801216	0.41635013
74	14	0.508450005	0.780299865	0.447580991
74	14	0.526794346	0.803347	0.249372081
74	14	0.508077277	0.789990811	0.278244879
74	14	0.527160452	0.793828243	0.41635013
74	14	0.507410504	0.807326892	0.447580991
74	14	0.525754845	0.830374027	0.249372081
74	14	0.507037775	0.817017838	0.278244879
74	14	0.526120951	0.82085527	0.41635013
74	14	0.506371003	0.834353919	0.447580991
74	14	0.524715344	0.857401054	0.249372081
74	14	0.505998274	0.844044865	0.278244879
74	14	0.52508145	0.847882297	0.41635013
74	14	0.505331502	0.861380946	0.447580991
74	14	0.523675843	0.884428081	0.249372081
74	14	0.504958773	0.871071892	0.278244879
74	14	0.524041949	0.874909324	0.41635013
74	14	0.504292001	0.888407973	0.447580991
74	14	0.522636342	0.911455108	0.249372081
74	14	0.503919272	0.898098919	0.278244879
74	14	0.523002448	0.901936351	0.41635013
74	14	0.5032525	0.915435	0.447580991
74	14	0.521596841	0.938482135	0.249372081
74	14	0.502879771	0.925125946	0.278244879
74	14	0.521962947	0.928963378	0.41635013
74	14	0.502212999	0.942462027	0.447580991
74	14	0.52055734	0.965509162	0.249372081
74	14	0.50184027	0.952152973	0.278244879
74	14	0.520923446	0.955990405	0.41635013
74	14	0.501173498	0.969489054	0.447580991
74	14	0.519517839	0.992536189	0.249372081
74	14	0.500800769	0.97918	0.278244879
74	14	0.519883945	0.983017432	0.41635013
74	14	0.500133997	0.996516081	0.447580991
74	14	0.595401415	0.019563216	0.249372081
74	14	0.576684345	0.006207027	0.278244879
74	14	0.595767521	0.010044459	0.41635013
74	14	0.576017573	0.023543108	0.447580991
74	14	0.594361914	0.046590243	0.249372081
74	14	0.575644844	0.033234054	0.278244879
74	14	0.59472802	0.037071486	0.41635013
74	14	0.574978072	0.050570135	0.447580991
74	14	0.593322413	0.07361727	0.249372081
74	14	0.574605343	0.060261081	0.278244879
74	14	0.593688519	0.064098514	0.41635013
74	14	0.573938571	0.077597162	0.447580991
74	14	0.592282912	0.100644297	0.249372081
74	14	0.573565842	0.087288108	0.278244879
74	14	0.592649018	0.091125541	0.41635013
74	14	0.57289907	0.104624189	0.447580991
74	14	0.591243411	0.127671324	0.249372081
74	14	0.572526341	0.114315135	0.278244879
74	14	0.591609517	0.118152568	0.41635013
74	14	0.571859569	0.131651216	0.447580991
74	14	0.59020391	0.154698351	0.249372081
74	14	0.57148684	0.141342162	0.278244879
74	14	0.590570016	0.145179595	0.41635013
74	14	0.570820068	0.158678243	0.447580991
74	14	0.589164409	0.181725378	0.249372081
74	14	0.570447339	0.168369189	0.278244879
74	14	0.589530515	0.172206622	0.41635013
74	14	0.569780567	0.18570527	0.447580991
74	14	0.588124907	0.208752405	0.249372081
74	14	0.569407838	0.195396216	0.278244879
74	14	0.588491014	0.199233649	0.41635013
74	14	0.568741065	0.212732297	0.447580991
74	14	0.587085406	0.235779432	0.249372081
74	14	0.568368337	0.222423243	0.278244879
74	14	0.587451512	0.226260676	0.41635013
74	14	0.567701564	0.239759324	0.447580991
74	14	0.586045905	0.262806459	0.249372081
74	14	0.567328836	0.24945027	0.278244879
74	14	0.586412011	0.253287703	0.41635013
74	14	0.566662063	0.266786351	0.447580991
74	14	0.585006404	0.289833486	0.249372081
74	14	0.566289335	0.276477297	0.278244879
74	14	0.58537251	0.28031473	0.41635013
74	14	0.565622562	0.293813378	0.447580991
74	14	0.583966903	0.316860514	0.249372081
74	14	0.565249834	0.303504324	0.278244879
74	14	0.584333009	0.307341757	0.41635013
74	14	0.564583061	0.320840405	0.447580991
74	14	0.582927402	0.343887541	0.249372081
74	14	0.564210333	0.330531351	0.278244879
74	14	0.583293508	0.334368784	0.41635013
74	14	0.56354356	0.347867432	0.447580991
74	14	0.581887901	0.370914568	0.249372081
74	14	0.563170832	0.357558378	0.278244879
74	14	0.582254007	0.361395811	0.41635013
74	14	0.562504059	0.374894459	0.447580991
74	14	0.5808484	0.397941595	0.249372081
74	14	0.562131331	0.384585405	0.278244879
74	14	0.581214506	0.388422838	0.41635013
74	14	0.561464558	0.401921486	0.447580991
74	14	0.579808899	0.424968622	0.249372081
74	14	0.56109183	0.411612432	0.278244879
74	14	0.580175005	0.415449865	0.41635013
74	14	0.560425057	0.428948514	0.447580991
74	14	0.578769398	0.451995649	0.249372081
74	14	0.560052328	0.438639459	0.278244879
74	14	0.579135504	0.442476892	0.41635013
74	14	0.559385556	0.455975541	0.447580991
74	14	0.577729897	0.479022676	0.249372081
74	14	0.559012827	0.465666486	0.278244879
74	14	0.578096003	0.469503919	0.41635013
74	14	0.558346055	0.483002568	0.447580991
74	14	0.576690396	0.506049703	0.249372081
74	14	0.557973326	0.492693514	0.278244879
74	14	0.577056502	0.496530946	0.41635013
74	14	0.557306554	0.510029595	0.447580991
74	14	0.575650895	0.53307673	0.249372081
74	14	0.556933825	0.519720541	0.278244879
74	14	0.576017001	0.523557973	0.41635013
74	14	0.556267053	0.537056622	0.447580991
74	14	0.574611394	0.560103757	0.249372081
74	14	0.555894324	0.546747568	0.278244879
74	14	0.5749775	0.550585	0.41635013
74	14	0.555227552	0.564083649	0.447580991
74	14	0.573571893	0.587130784	0.249372081
74	14	0.554854823	0.573774595	0.278244879
74	14	0.573937999	0.577612027	0.41635013
74	14	0.554188051	0.591110676	0.447580991
74	14	0.572532392	0.614157811	0.249372081
74	14	0.553815322	0.600801622	0.278244879
74	14	0.572898498	0.604639054	0.41635013
74	14	0.55314855	0.618137703	0.447580991
74	14	0.571492891	0.641184838	0.249372081
74	14	0.552775821	0.627828649	0.278244879
74	14	0.571858997	0.631666081	0.41635013
74	14	0.552109049	0.64516473	0.447580991
74	14	0.57045339	0.668211865	0.249372081
74	14	0.55173632	0.654855676	0.278244879
74	14	0.570819496	0.658693108	0.41635013
74	14	0.551069548	0.672191757	0.447580991
74	14	0.569413889	0.695238892	0.249372081
74	14	0.550696819	0.681882703	0.278244879
74	14	0.569779995	0.685720135	0.41635013
74	14	0.550030047	0.699218784	0.447580991
74	14	0.568374388	0.722265919	0.249372081
74	14	0.549657318	0.70890973	0.278244879
74	14	0.568740494	0.712747162	0.41635013
74	14	0.548990546	0.726245811	0.447580991
74	14	0.567334887	0.749292946	0.249372081
74	14	0.548617817	0.735936757	0.278244879
74	14	0.567700993	0.739774189	0.41635013
74	14	0.547951045	0.753272838	0.447580991
74	14	0.566295386	0.776319973	0.249372081
74	14	0.547578316	0.762963784	0.278244879
74	14	0.566661492	0.766801216	0.41635013
74	14	0.546911544	0.780299865	0.447580991
74	14	0.565255885	0.803347	0.249372081
74	14	0.546538815	0.789990811	0.278244879
74	14	0.565621991	0.793828243	0.41635013
74	14	0.545872043	0.807326892	0.447580991
74	14	0.564216384	0.830374027	0.249372081
74	14	0.545499314	0.817017838	0.278244879
74	14	0.56458249	0.82085527	0.41635013
74	14	0.544832542	0.834353919	0.447580991
74	14	0.563176883	0.857401054	0.249372081
74	14	0.544459813	0.844044865	0.278244879
74	14	0.563542989	0.847882297	0.41635013
74	14	0.543793041	0.861380946	0.447580991
74	14	0.562137381	0.884428081	0.249372081
74	14	0.543420312	0.871071892	0.278244879
74	14	0.562503488	0.874909324	0.41635013
74	14	0.54275354	0.888407973	0.447580991
74	14	0.56109788	0.911455108	0.249372081
74	14	0.542380811	0.898098919	0.278244879
74	14	0.561463986	0.901936351	0.41635013
74	14	0.541714038	0.915435	0.447580991
74	14	0.560058379	0.938482135	0.249372081
74	14	0.54134131	0.925125946	0.278244879
74	14	0.560424485	0.928963378	0.41635013
74	14	0.540674537	0.942462027	0.447580991
74	14	0.559018878	0.965509162	0.249372081
74	14	0.540301809	0.952152973	0.278244879
74	14	0.559384984	0.955990405	0.41635013
74	14	0.539635036	0.969489054	0.447580991
74	14	0.557979377	0.992536189	0.249372081
74	14	0.539262308	0.97918	0.278244879
74	14	0.558345483	0.983017432	0.41635013
74	14	0.538595535	0.996516081	0.447580991
74	14	0.633862953	0.019563216	0.249372081
74	14	0.615145884	0.006207027	0.278244879
74	14	0.634229059	0.010044459	0.41635013
74	14	0.614479111	0.023543108	0.447580991
74	14	0.632823452	0.046590243	0.249372081
74	14	0.614106383	0.033234054	0.278244879
74	14	0.633189558	0.037071486	0.41635013
74	14	0.61343961	0.050570135	0.447580991
74	14	0.631783951	0.07361727	0.249372081
74	14	0.613066881	0.060261081	0.278244879
74	14	0.632150057	0.064098514	0.41635013
74	14	0.612400109	0.077597162	0.447580991
74	14	0.63074445	0.100644297	0.249372081
74	14	0.61202738	0.087288108	0.278244879
74	14	0.631110556	0.091125541	0.41635013
74	14	0.611360608	0.104624189	0.447580991
74	14	0.629704949	0.127671324	0.249372081
74	14	0.610987879	0.114315135	0.278244879
74	14	0.630071055	0.118152568	0.41635013
74	14	0.610321107	0.131651216	0.447580991
74	14	0.628665448	0.154698351	0.249372081
74	14	0.609948378	0.141342162	0.278244879
74	14	0.629031554	0.145179595	0.41635013
74	14	0.609281606	0.158678243	0.447580991
74	14	0.627625947	0.181725378	0.249372081
74	14	0.608908877	0.168369189	0.278244879
74	14	0.627992053	0.172206622	0.41635013
74	14	0.608242105	0.18570527	0.447580991
74	14	0.626586446	0.208752405	0.249372081
74	14	0.607869376	0.195396216	0.278244879
74	14	0.626952552	0.199233649	0.41635013
74	14	0.607202604	0.212732297	0.447580991
74	14	0.625546945	0.235779432	0.249372081
74	14	0.606829875	0.222423243	0.278244879
74	14	0.625913051	0.226260676	0.41635013
74	14	0.606163103	0.239759324	0.447580991
74	14	0.624507444	0.262806459	0.249372081
74	14	0.605790374	0.24945027	0.278244879
74	14	0.62487355	0.253287703	0.41635013
74	14	0.605123602	0.266786351	0.447580991
74	14	0.623467943	0.289833486	0.249372081
74	14	0.604750873	0.276477297	0.278244879
74	14	0.623834049	0.28031473	0.41635013
74	14	0.604084101	0.293813378	0.447580991
74	14	0.622428442	0.316860514	0.249372081
74	14	0.603711372	0.303504324	0.278244879
74	14	0.622794548	0.307341757	0.41635013
74	14	0.6030446	0.320840405	0.447580991
74	14	0.621388941	0.343887541	0.249372081
74	14	0.602671871	0.330531351	0.278244879
74	14	0.621755047	0.334368784	0.41635013
74	14	0.602005099	0.347867432	0.447580991
74	14	0.62034944	0.370914568	0.249372081
74	14	0.60163237	0.357558378	0.278244879
74	14	0.620715546	0.361395811	0.41635013
74	14	0.600965598	0.374894459	0.447580991
74	14	0.619309939	0.397941595	0.249372081
74	14	0.600592869	0.384585405	0.278244879
74	14	0.619676045	0.388422838	0.41635013
74	14	0.599926097	0.401921486	0.447580991
74	14	0.618270438	0.424968622	0.249372081
74	14	0.599553368	0.411612432	0.278244879
74	14	0.618636544	0.415449865	0.41635013
74	14	0.598886596	0.428948514	0.447580991
74	14	0.617230937	0.451995649	0.249372081
74	14	0.598513867	0.438639459	0.278244879
74	14	0.617597043	0.442476892	0.41635013
74	14	0.597847095	0.455975541	0.447580991
74	14	0.616191436	0.479022676	0.249372081
74	14	0.597474366	0.465666486	0.278244879
74	14	0.616557542	0.469503919	0.41635013
74	14	0.596807594	0.483002568	0.447580991
74	14	0.615151935	0.506049703	0.249372081
74	14	0.596434865	0.492693514	0.278244879
74	14	0.615518041	0.496530946	0.41635013
74	14	0.595768093	0.510029595	0.447580991
74	14	0.614112433	0.53307673	0.249372081
74	14	0.595395364	0.519720541	0.278244879
74	14	0.61447854	0.523557973	0.41635013
74	14	0.594728591	0.537056622	0.447580991
74	14	0.613072932	0.560103757	0.249372081
74	14	0.594355863	0.546747568	0.278244879
74	14	0.613439038	0.550585	0.41635013
74	14	0.59368909	0.564083649	0.447580991
74	14	0.612033431	0.587130784	0.249372081
74	14	0.593316362	0.573774595	0.278244879
74	14	0.612399537	0.577612027	0.41635013
74	14	0.592649589	0.591110676	0.447580991
74	14	0.61099393	0.614157811	0.249372081
74	14	0.592276861	0.600801622	0.278244879
74	14	0.611360036	0.604639054	0.41635013
74	14	0.591610088	0.618137703	0.447580991
74	14	0.609954429	0.641184838	0.249372081
74	14	0.59123736	0.627828649	0.278244879
74	14	0.610320535	0.631666081	0.41635013
74	14	0.590570587	0.64516473	0.447580991
74	14	0.608914928	0.668211865	0.249372081
74	14	0.590197859	0.654855676	0.278244879
74	14	0.609281034	0.658693108	0.41635013
74	14	0.589531086	0.672191757	0.447580991
74	14	0.607875427	0.695238892	0.249372081
74	14	0.589158358	0.681882703	0.278244879
74	14	0.608241533	0.685720135	0.41635013
74	14	0.588491585	0.699218784	0.447580991
74	14	0.606835926	0.722265919	0.249372081
74	14	0.588118857	0.70890973	0.278244879
74	14	0.607202032	0.712747162	0.41635013
74	14	0.587452084	0.726245811	0.447580991
74	14	0.605796425	0.749292946	0.249372081
74	14	0.587079356	0.735936757	0.278244879
74	14	0.606162531	0.739774189	0.41635013
74	14	0.586412583	0.753272838	0.447580991
74	14	0.604756924	0.776319973	0.249372081
74	14	0.586039854	0.762963784	0.278244879
74	14	0.60512303	0.766801216	0.41635013
74	14	0.585373082	0.780299865	0.447580991
74	14	0.603717423	0.803347	0.249372081
74	14	0.585000353	0.789990811	0.278244879
74	14	0.604083529	0.793828243	0.41635013
74	14	0.584333581	0.807326892	0.447580991
74	14	0.602677922	0.830374027	0.249372081
74	14	0.583960852	0.817017838	0.278244879
74	14	0.603044028	0.82085527	0.41635013
74	14	0.58329408	0.834353919	0.447580991
74	14	0.601638421	0.857401054	0.249372081
74	14	0.582921351	0.844044865	0.278244879
74	14	0.602004527	0.847882297	0.41635013
74	14	0.582254579	0.861380946	0.447580991
74	14	0.60059892	0.884428081	0.249372081
74	14	0.58188185	0.871071892	0.278244879
74	14	0.600965026	0.874909324	0.41635013
74	14	0.581215078	0.888407973	0.447580991
74	14	0.599559419	0.911455108	0.249372081
74	14	0.580842349	0.898098919	0.278244879
74	14	0.599925525	0.901936351	0.41635013
74	14	0.580175577	0.915435	0.447580991
74	14	0.598519918	0.938482135	0.249372081
74	14	0.579802848	0.925125946	0.278244879
74	14	0.598886024	0.928963378	0.41635013
74	14	0.579136076	0.942462027	0.447580991
74	14	0.597480417	0.965509162	0.249372081
74	14	0.578763347	0.952152973	0.278244879
74	14	0.597846523	0.955990405	0.41635013
74	14	0.578096575	0.969489054	0.447580991
74	14	0.596440916	0.992536189	0.249372081
74	14	0.577723846	0.97918	0.278244879
74	14	0.596807022	0.983017432	0.41635013
74	14	0.577057074	0.996516081	0.447580991
74	14	0.672324492	0.019563216	0.249372081
74	14	0.653607422	0.006207027	0.278244879
74	14	0.672690598	0.010044459	0.41635013
74	14	0.65294065	0.023543108	0.447580991
74	14	0.671284991	0.046590243	0.249372081
74	14	0.652567921	0.033234054	0.278244879
74	14	0.671651097	0.037071486	0.41635013
74	14	0.651901149	0.050570135	0.447580991
74	14	0.67024549	0.07361727	0.249372081
74	14	0.65152842	0.060261081	0.278244879
74	14	0.670611596	0.064098514	0.41635013
74	14	0.650861648	0.077597162	0.447580991
74	14	0.669205989	0.100644297	0.249372081
74	14	0.650488919	0.087288108	0.278244879
74	14	0.669572095	0.091125541	0.41635013
74	14	0.649822147	0.104624189	0.447580991
74	14	0.668166488	0.127671324	0.249372081
74	14	0.649449418	0.114315135	0.278244879
74	14	0.668532594	0.118152568	0.41635013
74	14	0.648782646	0.131651216	0.447580991
74	14	0.667126986	0.154698351	0.249372081
74	14	0.648409917	0.141342162	0.278244879
74	14	0.667493093	0.145179595	0.41635013
74	14	0.647743144	0.158678243	0.447580991
74	14	0.666087485	0.181725378	0.249372081
74	14	0.647370416	0.168369189	0.278244879
74	14	0.666453591	0.172206622	0.41635013
74	14	0.646703643	0.18570527	0.447580991
74	14	0.665047984	0.208752405	0.249372081
74	14	0.646330915	0.195396216	0.278244879
74	14	0.66541409	0.199233649	0.41635013
74	14	0.645664142	0.212732297	0.447580991
74	14	0.664008483	0.235779432	0.249372081
74	14	0.645291414	0.222423243	0.278244879
74	14	0.664374589	0.226260676	0.41635013
74	14	0.644624641	0.239759324	0.447580991
74	14	0.662968982	0.262806459	0.249372081
74	14	0.644251913	0.24945027	0.278244879
74	14	0.663335088	0.253287703	0.41635013
74	14	0.64358514	0.266786351	0.447580991
74	14	0.661929481	0.289833486	0.249372081
74	14	0.643212412	0.276477297	0.278244879
74	14	0.662295587	0.28031473	0.41635013
74	14	0.642545639	0.293813378	0.447580991
74	14	0.66088998	0.316860514	0.249372081
74	14	0.642172911	0.303504324	0.278244879
74	14	0.661256086	0.307341757	0.41635013
74	14	0.641506138	0.320840405	0.447580991
74	14	0.659850479	0.343887541	0.249372081
74	14	0.64113341	0.330531351	0.278244879
74	14	0.660216585	0.334368784	0.41635013
74	14	0.640466637	0.347867432	0.447580991
74	14	0.658810978	0.370914568	0.249372081
74	14	0.640093909	0.357558378	0.278244879
74	14	0.659177084	0.361395811	0.41635013
74	14	0.639427136	0.374894459	0.447580991
74	14	0.657771477	0.397941595	0.249372081
74	14	0.639054407	0.384585405	0.278244879
74	14	0.658137583	0.388422838	0.41635013
74	14	0.638387635	0.401921486	0.447580991
74	14	0.656731976	0.424968622	0.249372081
74	14	0.638014906	0.411612432	0.278244879
74	14	0.657098082	0.415449865	0.41635013
74	14	0.637348134	0.428948514	0.447580991
74	14	0.655692475	0.451995649	0.249372081
74	14	0.636975405	0.438639459	0.278244879
74	14	0.656058581	0.442476892	0.41635013
74	14	0.636308633	0.455975541	0.447580991
74	14	0.654652974	0.479022676	0.249372081
74	14	0.635935904	0.465666486	0.278244879
74	14	0.65501908	0.469503919	0.41635013
74	14	0.635269132	0.483002568	0.447580991
74	14	0.653613473	0.506049703	0.249372081
74	14	0.634896403	0.492693514	0.278244879
74	14	0.653979579	0.496530946	0.41635013
74	14	0.634229631	0.510029595	0.447580991
74	14	0.652573972	0.53307673	0.249372081
74	14	0.633856902	0.519720541	0.278244879
74	14	0.652940078	0.523557973	0.41635013
74	14	0.63319013	0.537056622	0.447580991
74	14	0.651534471	0.560103757	0.249372081
74	14	0.632817401	0.546747568	0.278244879
74	14	0.651900577	0.550585	0.41635013
74	14	0.632150629	0.564083649	0.447580991
74	14	0.65049497	0.587130784	0.249372081
74	14	0.6317779	0.573774595	0.278244879
74	14	0.650861076	0.577612027	0.41635013
74	14	0.631111128	0.591110676	0.447580991
74	14	0.649455469	0.614157811	0.249372081
74	14	0.630738399	0.600801622	0.278244879
74	14	0.649821575	0.604639054	0.41635013
74	14	0.630071627	0.618137703	0.447580991
74	14	0.648415968	0.641184838	0.249372081
74	14	0.629698898	0.627828649	0.278244879
74	14	0.648782074	0.631666081	0.41635013
74	14	0.629032126	0.64516473	0.447580991
74	14	0.647376467	0.668211865	0.249372081
74	14	0.628659397	0.654855676	0.278244879
74	14	0.647742573	0.658693108	0.41635013
74	14	0.627992625	0.672191757	0.447580991
74	14	0.646336966	0.695238892	0.249372081
74	14	0.627619896	0.681882703	0.278244879
74	14	0.646703072	0.685720135	0.41635013
74	14	0.626953124	0.699218784	0.447580991
74	14	0.645297465	0.722265919	0.249372081
74	14	0.626580395	0.70890973	0.278244879
74	14	0.645663571	0.712747162	0.41635013
74	14	0.625913623	0.726245811	0.447580991
74	14	0.644257964	0.749292946	0.249372081
74	14	0.625540894	0.735936757	0.278244879
74	14	0.64462407	0.739774189	0.41635013
74	14	0.624874122	0.753272838	0.447580991
74	14	0.643218463	0.776319973	0.249372081
74	14	0.624501393	0.762963784	0.278244879
74	14	0.643584569	0.766801216	0.41635013
74	14	0.623834621	0.780299865	0.447580991
74	14	0.642178962	0.803347	0.249372081
74	14	0.623461892	0.789990811	0.278244879
74	14	0.642545068	0.793828243	0.41635013
74	14	0.62279512	0.807326892	0.447580991
74	14	0.64113946	0.830374027	0.249372081
74	14	0.622422391	0.817017838	0.278244879
74	14	0.641505567	0.82085527	0.41635013
74	14	0.621755619	0.834353919	0.447580991
74	14	0.640099959	0.857401054	0.249372081
74	14	0.62138289	0.844044865	0.278244879
74	14	0.640466065	0.847882297	0.41635013
74	14	0.620716117	0.861380946	0.447580991
74	14	0.639060458	0.884428081	0.249372081
74	14	0.620343389	0.871071892	0.278244879
74	14	0.639426564	0.874909324	0.41635013
74	14	0.619676616	0.888407973	0.447580991
74	14	0.638020957	0.911455108	0.249372081
74	14	0.619303888	0.898098919	0.278244879
74	14	0.638387063	0.901936351	0.41635013
74	14	0.618637115	0.915435	0.447580991
74	14	0.636981456	0.938482135	0.249372081
74	14	0.618264387	0.925125946	0.278244879
74	14	0.637347562	0.928963378	0.41635013
74	14	0.617597614	0.942462027	0.447580991
74	14	0.635941955	0.965509162	0.249372081
74	14	0.617224886	0.952152973	0.278244879
74	14	0.636308061	0.955990405	0.41635013
74	14	0.616558113	0.969489054	0.447580991
74	14	0.634902454	0.992536189	0.249372081
74	14	0.616185385	0.97918	0.278244879
74	14	0.63526856	0.983017432	0.41635013
74	14	0.615518612	0.996516081	0.447580991
74	14	0.71078603	0.019563216	0.249372081
74	14	0.69206896	0.006207027	0.278244879
74	14	0.711152136	0.010044459	0.41635013
74	14	0.691402188	0.023543108	0.447580991
74	14	0.709746529	0.046590243	0.249372081
74	14	0.691029459	0.033234054	0.278244879
74	14	0.710112635	0.037071486	0.41635013
74	14	0.690362687	0.050570135	0.447580991
74	14	0.708707028	0.07361727	0.249372081
74	14	0.689989958	0.060261081	0.278244879
74	14	0.709073134	0.064098514	0.41635013
74	14	0.689323186	0.077597162	0.447580991
74	14	0.707667527	0.100644297	0.249372081
74	14	0.688950457	0.087288108	0.278244879
74	14	0.708033633	0.091125541	0.41635013
74	14	0.688283685	0.104624189	0.447580991
74	14	0.706628026	0.127671324	0.249372081
74	14	0.687910956	0.114315135	0.278244879
74	14	0.706994132	0.118152568	0.41635013
74	14	0.687244184	0.131651216	0.447580991
74	14	0.705588525	0.154698351	0.249372081
74	14	0.686871455	0.141342162	0.278244879
74	14	0.705954631	0.145179595	0.41635013
74	14	0.686204683	0.158678243	0.447580991
74	14	0.704549024	0.181725378	0.249372081
74	14	0.685831954	0.168369189	0.278244879
74	14	0.70491513	0.172206622	0.41635013
74	14	0.685165182	0.18570527	0.447580991
74	14	0.703509523	0.208752405	0.249372081
74	14	0.684792453	0.195396216	0.278244879
74	14	0.703875629	0.199233649	0.41635013
74	14	0.684125681	0.212732297	0.447580991
74	14	0.702470022	0.235779432	0.249372081
74	14	0.683752952	0.222423243	0.278244879
74	14	0.702836128	0.226260676	0.41635013
74	14	0.68308618	0.239759324	0.447580991
74	14	0.701430521	0.262806459	0.249372081
74	14	0.682713451	0.24945027	0.278244879
74	14	0.701796627	0.253287703	0.41635013
74	14	0.682046679	0.266786351	0.447580991
74	14	0.70039102	0.289833486	0.249372081
74	14	0.68167395	0.276477297	0.278244879
74	14	0.700757126	0.28031473	0.41635013
74	14	0.681007178	0.293813378	0.447580991
74	14	0.699351519	0.316860514	0.249372081
74	14	0.680634449	0.303504324	0.278244879
74	14	0.699717625	0.307341757	0.41635013
74	14	0.679967677	0.320840405	0.447580991
74	14	0.698312018	0.343887541	0.249372081
74	14	0.679594948	0.330531351	0.278244879
74	14	0.698678124	0.334368784	0.41635013
74	14	0.678928176	0.347867432	0.447580991
74	14	0.697272517	0.370914568	0.249372081
74	14	0.678555447	0.357558378	0.278244879
74	14	0.697638623	0.361395811	0.41635013
74	14	0.677888675	0.374894459	0.447580991
74	14	0.696233016	0.397941595	0.249372081
74	14	0.677515946	0.384585405	0.278244879
74	14	0.696599122	0.388422838	0.41635013
74	14	0.676849174	0.401921486	0.447580991
74	14	0.695193515	0.424968622	0.249372081
74	14	0.676476445	0.411612432	0.278244879
74	14	0.695559621	0.415449865	0.41635013
74	14	0.675809673	0.428948514	0.447580991
74	14	0.694154014	0.451995649	0.249372081
74	14	0.675436944	0.438639459	0.278244879
74	14	0.69452012	0.442476892	0.41635013
74	14	0.674770172	0.455975541	0.447580991
74	14	0.693114512	0.479022676	0.249372081
74	14	0.674397443	0.465666486	0.278244879
74	14	0.693480619	0.469503919	0.41635013
74	14	0.67373067	0.483002568	0.447580991
74	14	0.692075011	0.506049703	0.249372081
74	14	0.673357942	0.492693514	0.278244879
74	14	0.692441117	0.496530946	0.41635013
74	14	0.672691169	0.510029595	0.447580991
74	14	0.69103551	0.53307673	0.249372081
74	14	0.672318441	0.519720541	0.278244879
74	14	0.691401616	0.523557973	0.41635013
74	14	0.671651668	0.537056622	0.447580991
74	14	0.689996009	0.560103757	0.249372081
74	14	0.67127894	0.546747568	0.278244879
74	14	0.690362115	0.550585	0.41635013
74	14	0.670612167	0.564083649	0.447580991
74	14	0.688956508	0.587130784	0.249372081
74	14	0.670239439	0.573774595	0.278244879
74	14	0.689322614	0.577612027	0.41635013
74	14	0.669572666	0.591110676	0.447580991
74	14	0.687917007	0.614157811	0.249372081
74	14	0.669199938	0.600801622	0.278244879
74	14	0.688283113	0.604639054	0.41635013
74	14	0.668533165	0.618137703	0.447580991
74	14	0.686877506	0.641184838	0.249372081
74	14	0.668160437	0.627828649	0.278244879
74	14	0.687243612	0.631666081	0.41635013
74	14	0.667493664	0.64516473	0.447580991
74	14	0.685838005	0.668211865	0.249372081
74	14	0.667120936	0.654855676	0.278244879
74	14	0.686204111	0.658693108	0.41635013
74	14	0.666454163	0.672191757	0.447580991
74	14	0.684798504	0.695238892	0.249372081
74	14	0.666081435	0.681882703	0.278244879
74	14	0.68516461	0.685720135	0.41635013
74	14	0.665414662	0.699218784	0.447580991
74	14	0.683759003	0.722265919	0.249372081
74	14	0.665041933	0.70890973	0.278244879
74	14	0.684125109	0.712747162	0.41635013
74	14	0.664375161	0.726245811	0.447580991
74	14	0.682719502	0.749292946	0.249372081
74	14	0.664002432	0.735936757	0.278244879
74	14	0.683085608	0.739774189	0.41635013
74	14	0.66333566	0.753272838	0.447580991
74	14	0.681680001	0.776319973	0.249372081
74	14	0.662962931	0.762963784	0.278244879
74	14	0.682046107	0.766801216	0.41635013
74	14	0.662296159	0.780299865	0.447580991
74	14	0.6806405	0.803347	0.249372081
74	14	0.66192343	0.789990811	0.278244879
74	14	0.681006606	0.793828243	0.41635013
74	14	0.661256658	0.807326892	0.447580991
74	14	0.679600999	0.830374027	0.249372081
74	14	0.660883929	0.817017838	0.278244879
74	14	0.679967105	0.82085527	0.41635013
74	14	0.660217157	0.834353919	0.447580991
74	14	0.678561498	0.857401054	0.249372081
74	14	0.659844428	0.844044865	0.278244879
74	14	0.678927604	0.847882297	0.41635013
74	14	0.659177656	0.861380946	0.447580991
74	14	0.677521997	0.884428081	0.249372081
74	14	0.658804927	0.871071892	0.278244879
74	14	0.677888103	0.874909324	0.41635013
74	14	0.658138155	0.888407973	0.447580991
74	14	0.676482496	0.911455108	0.249372081
74	14	0.657765426	0.898098919	0.278244879
74	14	0.676848602	0.901936351	0.41635013
74	14	0.657098654	0.915435	0.447580991
74	14	0.675442995	0.938482135	0.249372081
74	14	0.656725925	0.925125946	0.278244879
74	14	0.675809101	0.928963378	0.41635013
74	14	0.656059153	0.942462027	0.447580991
74	14	0.674403494	0.965509162	0.249372081
74	14	0.655686424	0.952152973	0.278244879
74	14	0.6747696	0.955990405	0.41635013
74	14	0.655019652	0.969489054	0.447580991
74	14	0.673363993	0.992536189	0.249372081
74	14	0.654646923	0.97918	0.278244879
74	14	0.673730099	0.983017432	0.41635013
74	14	0.653980151	0.996516081	0.447580991
74	14	0.749247569	0.019563216	0.249372081
74	14	0.730530499	0.006207027	0.278244879
74	14	0.749613675	0.010044459	0.41635013
74	14	0.729863727	0.023543108	0.447580991
74	14	0.748208068	0.046590243	0.249372081
74	14	0.729490998	0.033234054	0.278244879
74	14	0.748574174	0.037071486	0.41635013
74	14	0.728824226	0.050570135	0.447580991
74	14	0.747168567	0.07361727	0.249372081
74	14	0.728451497	0.060261081	0.278244879
74	14	0.747534673	0.064098514	0.41635013
74	14	0.727784725	0.077597162	0.447580991
74	14	0.746129065	0.100644297	0.249372081
74	14	0.727411996	0.087288108	0.278244879
74	14	0.746495172	0.091125541	0.41635013
74	14	0.726745223	0.104624189	0.447580991
74	14	0.745089564	0.127671324	0.249372081
74	14	0.726372495	0.114315135	0.278244879
74	14	0.74545567	0.118152568	0.41635013
74	14	0.725705722	0.131651216	0.447580991
74	14	0.744050063	0.154698351	0.249372081
74	14	0.725332994	0.141342162	0.278244879
74	14	0.744416169	0.145179595	0.41635013
74	14	0.724666221	0.158678243	0.447580991
74	14	0.743010562	0.181725378	0.249372081
74	14	0.724293493	0.168369189	0.278244879
74	14	0.743376668	0.172206622	0.41635013
74	14	0.72362672	0.18570527	0.447580991
74	14	0.741971061	0.208752405	0.249372081
74	14	0.723253992	0.195396216	0.278244879
74	14	0.742337167	0.199233649	0.41635013
74	14	0.722587219	0.212732297	0.447580991
74	14	0.74093156	0.235779432	0.249372081
74	14	0.722214491	0.222423243	0.278244879
74	14	0.741297666	0.226260676	0.41635013
74	14	0.721547718	0.239759324	0.447580991
74	14	0.739892059	0.262806459	0.249372081
74	14	0.72117499	0.24945027	0.278244879
74	14	0.740258165	0.253287703	0.41635013
74	14	0.720508217	0.266786351	0.447580991
74	14	0.738852558	0.289833486	0.249372081
74	14	0.720135489	0.276477297	0.278244879
74	14	0.739218664	0.28031473	0.41635013
74	14	0.719468716	0.293813378	0.447580991
74	14	0.737813057	0.316860514	0.249372081
74	14	0.719095988	0.303504324	0.278244879
74	14	0.738179163	0.307341757	0.41635013
74	14	0.718429215	0.320840405	0.447580991
74	14	0.736773556	0.343887541	0.249372081
74	14	0.718056486	0.330531351	0.278244879
74	14	0.737139662	0.334368784	0.41635013
74	14	0.717389714	0.347867432	0.447580991
74	14	0.735734055	0.370914568	0.249372081
74	14	0.717016985	0.357558378	0.278244879
74	14	0.736100161	0.361395811	0.41635013
74	14	0.716350213	0.374894459	0.447580991
74	14	0.734694554	0.397941595	0.249372081
74	14	0.715977484	0.384585405	0.278244879
74	14	0.73506066	0.388422838	0.41635013
74	14	0.715310712	0.401921486	0.447580991
74	14	0.733655053	0.424968622	0.249372081
74	14	0.714937983	0.411612432	0.278244879
74	14	0.734021159	0.415449865	0.41635013
74	14	0.714271211	0.428948514	0.447580991
74	14	0.732615552	0.451995649	0.249372081
74	14	0.713898482	0.438639459	0.278244879
74	14	0.732981658	0.442476892	0.41635013
74	14	0.71323171	0.455975541	0.447580991
74	14	0.731576051	0.479022676	0.249372081
74	14	0.712858981	0.465666486	0.278244879
74	14	0.731942157	0.469503919	0.41635013
74	14	0.712192209	0.483002568	0.447580991
74	14	0.73053655	0.506049703	0.249372081
74	14	0.71181948	0.492693514	0.278244879
74	14	0.730902656	0.496530946	0.41635013
74	14	0.711152708	0.510029595	0.447580991
74	14	0.729497049	0.53307673	0.249372081
74	14	0.710779979	0.519720541	0.278244879
74	14	0.729863155	0.523557973	0.41635013
74	14	0.710113207	0.537056622	0.447580991
74	14	0.728457548	0.560103757	0.249372081
74	14	0.709740478	0.546747568	0.278244879
74	14	0.728823654	0.550585	0.41635013
74	14	0.709073706	0.564083649	0.447580991
74	14	0.727418047	0.587130784	0.249372081
74	14	0.708700977	0.573774595	0.278244879
74	14	0.727784153	0.577612027	0.41635013
74	14	0.708034205	0.591110676	0.447580991
74	14	0.726378546	0.614157811	0.249372081
74	14	0.707661476	0.600801622	0.278244879
74	14	0.726744652	0.604639054	0.41635013
74	14	0.706994704	0.618137703	0.447580991
74	14	0.725339045	0.641184838	0.249372081
74	14	0.706621975	0.627828649	0.278244879
74	14	0.725705151	0.631666081	0.41635013
74	14	0.705955203	0.64516473	0.447580991
74	14	0.724299544	0.668211865	0.249372081
74	14	0.705582474	0.654855676	0.278244879
74	14	0.72466565	0.658693108	0.41635013
74	14	0.704915702	0.672191757	0.447580991
74	14	0.723260043	0.695238892	0.249372081
74	14	0.704542973	0.681882703	0.278244879
74	14	0.723626149	0.685720135	0.41635013
74	14	0.703876201	0.699218784	0.447580991
74	14	0.722220542	0.722265919	0.249372081
74	14	0.703503472	0.70890973	0.278244879
74	14	0.722586648	0.712747162	0.41635013
74	14	0.7028367	0.726245811	0.447580991
74	14	0.721181041	0.749292946	0.249372081
74	14	0.702463971	0.735936757	0.278244879
74	14	0.721547147	0.739774189	0.41635013
74	14	0.701797199	0.753272838	0.447580991
74	14	0.72014154	0.776319973	0.249372081
74	14	0.70142447	0.762963784	0.278244879
74	14	0.720507646	0.766801216	0.41635013
74	14	0.700757698	0.780299865	0.447580991
74	14	0.719102038	0.803347	0.249372081
74	14	0.700384969	0.789990811	0.278244879
74	14	0.719468144	0.793828243	0.41635013
74	14	0.699718196	0.807326892	0.447580991
74	14	0.718062537	0.830374027	0.249372081
74	14	0.699345468	0.817017838	0.278244879
74	14	0.718428643	0.82085527	0.41635013
74	14	0.698678695	0.834353919	0.447580991
74	14	0.717023036	0.857401054	0.249372081
74	14	0.698305967	0.844044865	0.278244879
74	14	0.717389142	0.847882297	0.41635013
74	14	0.697639194	0.861380946	0.447580991
74	14	0.715983535	0.884428081	0.249372081
74	14	0.697266466	0.871071892	0.278244879
74	14	0.716349641	0.874909324	0.41635013
74	14	0.696599693	0.888407973	0.447580991
74	14	0.714944034	0.911455108	0.249372081
74	14	0.696226965	0.898098919	0.278244879
74	14	0.71531014	0.901936351	0.41635013
74	14	0.695560192	0.915435	0.447580991
74	14	0.713904533	0.938482135	0.249372081
74	14	0.695187464	0.925125946	0.278244879
74	14	0.714270639	0.928963378	0.41635013
74	14	0.694520691	0.942462027	0.447580991
74	14	0.712865032	0.965509162	0.249372081
74	14	0.694147963	0.952152973	0.278244879
74	14	0.713231138	0.955990405	0.41635013
74	14	0.69348119	0.969489054	0.447580991
74	14	0.711825531	0.992536189	0.249372081
74	14	0.693108462	0.97918	0.278244879
74	14	0.712191637	0.983017432	0.41635013
74	14	0.692441689	0.996516081	0.447580991
74	14	0.787709107	0.019563216	0.249372081
74	14	0.768992037	0.006207027	0.278244879
74	14	0.788075213	0.010044459	0.41635013
74	14	0.768325265	0.023543108	0.447580991
74	14	0.786669606	0.046590243	0.249372081
74	14	0.767952536	0.033234054	0.278244879
74	14	0.787035712	0.037071486	0.41635013
74	14	0.767285764	0.050570135	0.447580991
74	14	0.785630105	0.07361727	0.249372081
74	14	0.766913035	0.060261081	0.278244879
74	14	0.785996211	0.064098514	0.41635013
74	14	0.766246263	0.077597162	0.447580991
74	14	0.784590604	0.100644297	0.249372081
74	14	0.765873534	0.087288108	0.278244879
74	14	0.78495671	0.091125541	0.41635013
74	14	0.765206762	0.104624189	0.447580991
74	14	0.783551103	0.127671324	0.249372081
74	14	0.764834033	0.114315135	0.278244879
74	14	0.783917209	0.118152568	0.41635013
74	14	0.764167261	0.131651216	0.447580991
74	14	0.782511602	0.154698351	0.249372081
74	14	0.763794532	0.141342162	0.278244879
74	14	0.782877708	0.145179595	0.41635013
74	14	0.76312776	0.158678243	0.447580991
74	14	0.781472101	0.181725378	0.249372081
74	14	0.762755031	0.168369189	0.278244879
74	14	0.781838207	0.172206622	0.41635013
74	14	0.762088259	0.18570527	0.447580991
74	14	0.7804326	0.208752405	0.249372081
74	14	0.76171553	0.195396216	0.278244879
74	14	0.780798706	0.199233649	0.41635013
74	14	0.761048758	0.212732297	0.447580991
74	14	0.779393099	0.235779432	0.249372081
74	14	0.760676029	0.222423243	0.278244879
74	14	0.779759205	0.226260676	0.41635013
74	14	0.760009257	0.239759324	0.447580991
74	14	0.778353598	0.262806459	0.249372081
74	14	0.759636528	0.24945027	0.278244879
74	14	0.778719704	0.253287703	0.41635013
74	14	0.758969756	0.266786351	0.447580991
74	14	0.777314097	0.289833486	0.249372081
74	14	0.758597027	0.276477297	0.278244879
74	14	0.777680203	0.28031473	0.41635013
74	14	0.757930255	0.293813378	0.447580991
74	14	0.776274596	0.316860514	0.249372081
74	14	0.757557526	0.303504324	0.278244879
74	14	0.776640702	0.307341757	0.41635013
74	14	0.756890754	0.320840405	0.447580991
74	14	0.775235095	0.343887541	0.249372081
74	14	0.756518025	0.330531351	0.278244879
74	14	0.775601201	0.334368784	0.41635013
74	14	0.755851253	0.347867432	0.447580991
74	14	0.774195594	0.370914568	0.249372081
74	14	0.755478524	0.357558378	0.278244879
74	14	0.7745617	0.361395811	0.41635013
74	14	0.754811752	0.374894459	0.447580991
74	14	0.773156093	0.397941595	0.249372081
74	14	0.754439023	0.384585405	0.278244879
74	14	0.773522199	0.388422838	0.41635013
74	14	0.753772251	0.401921486	0.447580991
74	14	0.772116591	0.424968622	0.249372081
74	14	0.753399522	0.411612432	0.278244879
74	14	0.772482698	0.415449865	0.41635013
74	14	0.752732749	0.428948514	0.447580991
74	14	0.77107709	0.451995649	0.249372081
74	14	0.752360021	0.438639459	0.278244879
74	14	0.771443196	0.442476892	0.41635013
74	14	0.751693248	0.455975541	0.447580991
74	14	0.770037589	0.479022676	0.249372081
74	14	0.75132052	0.465666486	0.278244879
74	14	0.770403695	0.469503919	0.41635013
74	14	0.750653747	0.483002568	0.447580991
74	14	0.768998088	0.506049703	0.249372081
74	14	0.750281019	0.492693514	0.278244879
74	14	0.769364194	0.496530946	0.41635013
74	14	0.749614246	0.510029595	0.447580991
74	14	0.767958587	0.53307673	0.249372081
74	14	0.749241518	0.519720541	0.278244879
74	14	0.768324693	0.523557973	0.41635013
74	14	0.748574745	0.537056622	0.447580991
74	14	0.766919086	0.560103757	0.249372081
74	14	0.748202017	0.546747568	0.278244879
74	14	0.767285192	0.550585	0.41635013
74	14	0.747535244	0.564083649	0.447580991
74	14	0.765879585	0.587130784	0.249372081
74	14	0.747162516	0.573774595	0.278244879
74	14	0.766245691	0.577612027	0.41635013
74	14	0.746495743	0.591110676	0.447580991
74	14	0.764840084	0.614157811	0.249372081
74	14	0.746123015	0.600801622	0.278244879
74	14	0.76520619	0.604639054	0.41635013
74	14	0.745456242	0.618137703	0.447580991
74	14	0.763800583	0.641184838	0.249372081
74	14	0.745083514	0.627828649	0.278244879
74	14	0.764166689	0.631666081	0.41635013
74	14	0.744416741	0.64516473	0.447580991
74	14	0.762761082	0.668211865	0.249372081
74	14	0.744044012	0.654855676	0.278244879
74	14	0.763127188	0.658693108	0.41635013
74	14	0.74337724	0.672191757	0.447580991
74	14	0.761721581	0.695238892	0.249372081
74	14	0.743004511	0.681882703	0.278244879
74	14	0.762087687	0.685720135	0.41635013
74	14	0.742337739	0.699218784	0.447580991
74	14	0.76068208	0.722265919	0.249372081
74	14	0.74196501	0.70890973	0.278244879
74	14	0.761048186	0.712747162	0.41635013
74	14	0.741298238	0.726245811	0.447580991
74	14	0.759642579	0.749292946	0.249372081
74	14	0.740925509	0.735936757	0.278244879
74	14	0.760008685	0.739774189	0.41635013
74	14	0.740258737	0.753272838	0.447580991
74	14	0.758603078	0.776319973	0.249372081
74	14	0.739886008	0.762963784	0.278244879
74	14	0.758969184	0.766801216	0.41635013
74	14	0.739219236	0.780299865	0.447580991
74	14	0.757563577	0.803347	0.249372081
74	14	0.738846507	0.789990811	0.278244879
74	14	0.757929683	0.793828243	0.41635013
74	14	0.738179735	0.807326892	0.447580991
74	14	0.756524076	0.830374027	0.249372081
74	14	0.737807006	0.817017838	0.278244879
74	14	0.756890182	0.82085527	0.41635013
74	14	0.737140234	0.834353919	0.447580991
74	14	0.755484575	0.857401054	0.249372081
74	14	0.736767505	0.844044865	0.278244879
74	14	0.755850681	0.847882297	0.41635013
74	14	0.736100733	0.861380946	0.447580991
74	14	0.754445074	0.884428081	0.249372081
74	14	0.735728004	0.871071892	0.278244879
74	14	0.75481118	0.874909324	0.41635013
74	14	0.735061232	0.888407973	0.447580991
74	14	0.753405573	0.911455108	0.249372081
74	14	0.734688503	0.898098919	0.278244879
74	14	0.753771679	0.901936351	0.41635013
74	14	0.734021731	0.915435	0.447580991
74	14	0.752366072	0.938482135	0.249372081
74	14	0.733649002	0.925125946	0.278244879
74	14	0.752732178	0.928963378	0.41635013
74	14	0.73298223	0.942462027	0.447580991
74	14	0.751326571	0.965509162	0.249372081
74	14	0.732609501	0.952152973	0.278244879
74	14	0.751692677	0.955990405	0.41635013
74	14	0.731942729	0.969489054	0.447580991
74	14	0.75028707	0.992536189	0.249372081
74	14	0.73157	0.97918	0.278244879
74	14	0.750653176	0.983017432	0.41635013
74	14	0.730903228	0.996516081	0.447580991
74	14	0.826170646	0.019563216	0.249372081
74	14	0.807453576	0.006207027	0.278244879
74	14	0.826536752	0.010044459	0.41635013
74	14	0.806786804	0.023543108	0.447580991
74	14	0.825131144	0.046590243	0.249372081
74	14	0.806414075	0.033234054	0.278244879
74	14	0.825497251	0.037071486	0.41635013
74	14	0.805747302	0.050570135	0.447580991
74	14	0.824091643	0.07361727	0.249372081
74	14	0.805374574	0.060261081	0.278244879
74	14	0.824457749	0.064098514	0.41635013
74	14	0.804707801	0.077597162	0.447580991
74	14	0.823052142	0.100644297	0.249372081
74	14	0.804335073	0.087288108	0.278244879
74	14	0.823418248	0.091125541	0.41635013
74	14	0.8036683	0.104624189	0.447580991
74	14	0.822012641	0.127671324	0.249372081
74	14	0.803295572	0.114315135	0.278244879
74	14	0.822378747	0.118152568	0.41635013
74	14	0.802628799	0.131651216	0.447580991
74	14	0.82097314	0.154698351	0.249372081
74	14	0.802256071	0.141342162	0.278244879
74	14	0.821339246	0.145179595	0.41635013
74	14	0.801589298	0.158678243	0.447580991
74	14	0.819933639	0.181725378	0.249372081
74	14	0.80121657	0.168369189	0.278244879
74	14	0.820299745	0.172206622	0.41635013
74	14	0.800549797	0.18570527	0.447580991
74	14	0.818894138	0.208752405	0.249372081
74	14	0.800177069	0.195396216	0.278244879
74	14	0.819260244	0.199233649	0.41635013
74	14	0.799510296	0.212732297	0.447580991
74	14	0.817854637	0.235779432	0.249372081
74	14	0.799137568	0.222423243	0.278244879
74	14	0.818220743	0.226260676	0.41635013
74	14	0.798470795	0.239759324	0.447580991
74	14	0.816815136	0.262806459	0.249372081
74	14	0.798098067	0.24945027	0.278244879
74	14	0.817181242	0.253287703	0.41635013
74	14	0.797431294	0.266786351	0.447580991
74	14	0.815775635	0.289833486	0.249372081
74	14	0.797058565	0.276477297	0.278244879
74	14	0.816141741	0.28031473	0.41635013
74	14	0.796391793	0.293813378	0.447580991
74	14	0.814736134	0.316860514	0.249372081
74	14	0.796019064	0.303504324	0.278244879
74	14	0.81510224	0.307341757	0.41635013
74	14	0.795352292	0.320840405	0.447580991
74	14	0.813696633	0.343887541	0.249372081
74	14	0.794979563	0.330531351	0.278244879
74	14	0.814062739	0.334368784	0.41635013
74	14	0.794312791	0.347867432	0.447580991
74	14	0.812657132	0.370914568	0.249372081
74	14	0.793940062	0.357558378	0.278244879
74	14	0.813023238	0.361395811	0.41635013
74	14	0.79327329	0.374894459	0.447580991
74	14	0.811617631	0.397941595	0.249372081
74	14	0.792900561	0.384585405	0.278244879
74	14	0.811983737	0.388422838	0.41635013
74	14	0.792233789	0.401921486	0.447580991
74	14	0.81057813	0.424968622	0.249372081
74	14	0.79186106	0.411612432	0.278244879
74	14	0.810944236	0.415449865	0.41635013
74	14	0.791194288	0.428948514	0.447580991
74	14	0.809538629	0.451995649	0.249372081
74	14	0.790821559	0.438639459	0.278244879
74	14	0.809904735	0.442476892	0.41635013
74	14	0.790154787	0.455975541	0.447580991
74	14	0.808499128	0.479022676	0.249372081
74	14	0.789782058	0.465666486	0.278244879
74	14	0.808865234	0.469503919	0.41635013
74	14	0.789115286	0.483002568	0.447580991
74	14	0.807459627	0.506049703	0.249372081
74	14	0.788742557	0.492693514	0.278244879
74	14	0.807825733	0.496530946	0.41635013
74	14	0.788075785	0.510029595	0.447580991
74	14	0.806420126	0.53307673	0.249372081
74	14	0.787703056	0.519720541	0.278244879
74	14	0.806786232	0.523557973	0.41635013
74	14	0.787036284	0.537056622	0.447580991
74	14	0.805380625	0.560103757	0.249372081
74	14	0.786663555	0.546747568	0.278244879
74	14	0.805746731	0.550585	0.41635013
74	14	0.785996783	0.564083649	0.447580991
74	14	0.804341124	0.587130784	0.249372081
74	14	0.785624054	0.573774595	0.278244879
74	14	0.80470723	0.577612027	0.41635013
74	14	0.784957282	0.591110676	0.447580991
74	14	0.803301623	0.614157811	0.249372081
74	14	0.784584553	0.600801622	0.278244879
74	14	0.803667729	0.604639054	0.41635013
74	14	0.783917781	0.618137703	0.447580991
74	14	0.802262122	0.641184838	0.249372081
74	14	0.783545052	0.627828649	0.278244879
74	14	0.802628228	0.631666081	0.41635013
74	14	0.78287828	0.64516473	0.447580991
74	14	0.801222621	0.668211865	0.249372081
74	14	0.782505551	0.654855676	0.278244879
74	14	0.801588727	0.658693108	0.41635013
74	14	0.781838779	0.672191757	0.447580991
74	14	0.80018312	0.695238892	0.249372081
74	14	0.78146605	0.681882703	0.278244879
74	14	0.800549226	0.685720135	0.41635013
74	14	0.780799278	0.699218784	0.447580991
74	14	0.799143619	0.722265919	0.249372081
74	14	0.780426549	0.70890973	0.278244879
74	14	0.799509725	0.712747162	0.41635013
74	14	0.779759777	0.726245811	0.447580991
74	14	0.798104117	0.749292946	0.249372081
74	14	0.779387048	0.735936757	0.278244879
74	14	0.798470223	0.739774189	0.41635013
74	14	0.778720275	0.753272838	0.447580991
74	14	0.797064616	0.776319973	0.249372081
74	14	0.778347547	0.762963784	0.278244879
74	14	0.797430722	0.766801216	0.41635013
74	14	0.777680774	0.780299865	0.447580991
74	14	0.796025115	0.803347	0.249372081
74	14	0.777308046	0.789990811	0.278244879
74	14	0.796391221	0.793828243	0.41635013
74	14	0.776641273	0.807326892	0.447580991
74	14	0.794985614	0.830374027	0.249372081
74	14	0.776268545	0.817017838	0.278244879
74	14	0.79535172	0.82085527	0.41635013
74	14	0.775601772	0.834353919	0.447580991
74	14	0.793946113	0.857401054	0.249372081
74	14	0.775229044	0.844044865	0.278244879
74	14	0.794312219	0.847882297	0.41635013
74	14	0.774562271	0.861380946	0.447580991
74	14	0.792906612	0.884428081	0.249372081
74	14	0.774189543	0.871071892	0.278244879
74	14	0.793272718	0.874909324	0.41635013
74	14	0.77352277	0.888407973	0.447580991
74	14	0.791867111	0.911455108	0.249372081
74	14	0.773150042	0.898098919	0.278244879
74	14	0.792233217	0.901936351	0.41635013
74	14	0.772483269	0.915435	0.447580991
74	14	0.79082761	0.938482135	0.249372081
74	14	0.772110541	0.925125946	0.278244879
74	14	0.791193716	0.928963378	0.41635013
74	14	0.771443768	0.942462027	0.447580991
74	14	0.789788109	0.965509162	0.249372081
74	14	0.77107104	0.952152973	0.278244879
74	14	0.790154215	0.955990405	0.41635013
74	14	0.770404267	0.969489054	0.447580991
74	14	0.788748608	0.992536189	0.249372081
74	14	0.770031538	0.97918	0.278244879
74	14	0.789114714	0.983017432	0.41635013
74	14	0.769364766	0.996516081	0.447580991
74	14	0.864632184	0.019563216	0.249372081
74	14	0.845915114	0.006207027	0.278244879
74	14	0.86499829	0.010044459	0.41635013
74	14	0.845248342	0.023543108	0.447580991
74	14	0.863592683	0.046590243	0.249372081
74	14	0.844875613	0.033234054	0.278244879
74	14	0.863958789	0.037071486	0.41635013
74	14	0.844208841	0.050570135	0.447580991
74	14	0.862553182	0.07361727	0.249372081
74	14	0.843836112	0.060261081	0.278244879
74	14	0.862919288	0.064098514	0.41635013
74	14	0.84316934	0.077597162	0.447580991
74	14	0.861513681	0.100644297	0.249372081
74	14	0.842796611	0.087288108	0.278244879
74	14	0.861879787	0.091125541	0.41635013
74	14	0.842129839	0.104624189	0.447580991
74	14	0.86047418	0.127671324	0.249372081
74	14	0.84175711	0.114315135	0.278244879
74	14	0.860840286	0.118152568	0.41635013
74	14	0.841090338	0.131651216	0.447580991
74	14	0.859434679	0.154698351	0.249372081
74	14	0.840717609	0.141342162	0.278244879
74	14	0.859800785	0.145179595	0.41635013
74	14	0.840050837	0.158678243	0.447580991
74	14	0.858395178	0.181725378	0.249372081
74	14	0.839678108	0.168369189	0.278244879
74	14	0.858761284	0.172206622	0.41635013
74	14	0.839011336	0.18570527	0.447580991
74	14	0.857355677	0.208752405	0.249372081
74	14	0.838638607	0.195396216	0.278244879
74	14	0.857721783	0.199233649	0.41635013
74	14	0.837971835	0.212732297	0.447580991
74	14	0.856316176	0.235779432	0.249372081
74	14	0.837599106	0.222423243	0.278244879
74	14	0.856682282	0.226260676	0.41635013
74	14	0.836932334	0.239759324	0.447580991
74	14	0.855276675	0.262806459	0.249372081
74	14	0.836559605	0.24945027	0.278244879
74	14	0.855642781	0.253287703	0.41635013
74	14	0.835892833	0.266786351	0.447580991
74	14	0.854237174	0.289833486	0.249372081
74	14	0.835520104	0.276477297	0.278244879
74	14	0.85460328	0.28031473	0.41635013
74	14	0.834853332	0.293813378	0.447580991
74	14	0.853197673	0.316860514	0.249372081
74	14	0.834480603	0.303504324	0.278244879
74	14	0.853563779	0.307341757	0.41635013
74	14	0.833813831	0.320840405	0.447580991
74	14	0.852158172	0.343887541	0.249372081
74	14	0.833441102	0.330531351	0.278244879
74	14	0.852524278	0.334368784	0.41635013
74	14	0.83277433	0.347867432	0.447580991
74	14	0.85111867	0.370914568	0.249372081
74	14	0.832401601	0.357558378	0.278244879
74	14	0.851484777	0.361395811	0.41635013
74	14	0.831734828	0.374894459	0.447580991
74	14	0.850079169	0.397941595	0.249372081
74	14	0.8313621	0.384585405	0.278244879
74	14	0.850445275	0.388422838	0.41635013
74	14	0.830695327	0.401921486	0.447580991
74	14	0.849039668	0.424968622	0.249372081
74	14	0.830322599	0.411612432	0.278244879
74	14	0.849405774	0.415449865	0.41635013
74	14	0.829655826	0.428948514	0.447580991
74	14	0.848000167	0.451995649	0.249372081
74	14	0.829283098	0.438639459	0.278244879
74	14	0.848366273	0.442476892	0.41635013
74	14	0.828616325	0.455975541	0.447580991
74	14	0.846960666	0.479022676	0.249372081
74	14	0.828243597	0.465666486	0.278244879
74	14	0.847326772	0.469503919	0.41635013
74	14	0.827576824	0.483002568	0.447580991
74	14	0.845921165	0.506049703	0.249372081
74	14	0.827204096	0.492693514	0.278244879
74	14	0.846287271	0.496530946	0.41635013
74	14	0.826537323	0.510029595	0.447580991
74	14	0.844881664	0.53307673	0.249372081
74	14	0.826164595	0.519720541	0.278244879
74	14	0.84524777	0.523557973	0.41635013
74	14	0.825497822	0.537056622	0.447580991
74	14	0.843842163	0.560103757	0.249372081
74	14	0.825125094	0.546747568	0.278244879
74	14	0.844208269	0.550585	0.41635013
74	14	0.824458321	0.564083649	0.447580991
74	14	0.842802662	0.587130784	0.249372081
74	14	0.824085593	0.573774595	0.278244879
74	14	0.843168768	0.577612027	0.41635013
74	14	0.82341882	0.591110676	0.447580991
74	14	0.841763161	0.614157811	0.249372081
74	14	0.823046091	0.600801622	0.278244879
74	14	0.842129267	0.604639054	0.41635013
74	14	0.822379319	0.618137703	0.447580991
74	14	0.84072366	0.641184838	0.249372081
74	14	0.82200659	0.627828649	0.278244879
74	14	0.841089766	0.631666081	0.41635013
74	14	0.821339818	0.64516473	0.447580991
74	14	0.839684159	0.668211865	0.249372081
74	14	0.820967089	0.654855676	0.278244879
74	14	0.840050265	0.658693108	0.41635013
74	14	0.820300317	0.672191757	0.447580991
74	14	0.838644658	0.695238892	0.249372081
74	14	0.819927588	0.681882703	0.278244879
74	14	0.839010764	0.685720135	0.41635013
74	14	0.819260816	0.699218784	0.447580991
74	14	0.837605157	0.722265919	0.249372081
74	14	0.818888087	0.70890973	0.278244879
74	14	0.837971263	0.712747162	0.41635013
74	14	0.818221315	0.726245811	0.447580991
74	14	0.836565656	0.749292946	0.249372081
74	14	0.817848586	0.735936757	0.278244879
74	14	0.836931762	0.739774189	0.41635013
74	14	0.817181814	0.753272838	0.447580991
74	14	0.835526155	0.776319973	0.249372081
74	14	0.816809085	0.762963784	0.278244879
74	14	0.835892261	0.766801216	0.41635013
74	14	0.816142313	0.780299865	0.447580991
74	14	0.834486654	0.803347	0.249372081
74	14	0.815769584	0.789990811	0.278244879
74	14	0.83485276	0.793828243	0.41635013
74	14	0.815102812	0.807326892	0.447580991
74	14	0.833447153	0.830374027	0.249372081
74	14	0.814730083	0.817017838	0.278244879
74	14	0.833813259	0.82085527	0.41635013
74	14	0.814063311	0.834353919	0.447580991
74	14	0.832407652	0.857401054	0.249372081
74	14	0.813690582	0.844044865	0.278244879
74	14	0.832773758	0.847882297	0.41635013
74	14	0.81302381	0.861380946	0.447580991
74	14	0.831368151	0.884428081	0.249372081
74	14	0.812651081	0.871071892	0.278244879
74	14	0.831734257	0.874909324	0.41635013
74	14	0.811984309	0.888407973	0.447580991
74	14	0.83032865	0.911455108	0.249372081
74	14	0.81161158	0.898098919	0.278244879
74	14	0.830694756	0.901936351	0.41635013
74	14	0.810944808	0.915435	0.447580991
74	14	0.829289149	0.938482135	0.249372081
74	14	0.810572079	0.925125946	0.278244879
74	14	0.829655255	0.928963378	0.41635013
74	14	0.809905307	0.942462027	0.447580991
74	14	0.828249648	0.965509162	0.249372081
74	14	0.809532578	0.952152973	0.278244879
74	14	0.828615754	0.955990405	0.41635013
74	14	0.808865806	0.969489054	0.447580991
74	14	0.827210147	0.992536189	0.249372081
74	14	0.808493077	0.97918	0.278244879
74	14	0.827576253	0.983017432	0.41635013
74	14	0.807826305	0.996516081	0.447580991
74	14	0.903093722	0.019563216	0.249372081
74	14	0.884376653	0.006207027	0.278244879
74	14	0.903459828	0.010044459	0.41635013
74	14	0.88370988	0.023543108	0.447580991
74	14	0.902054221	0.046590243	0.249372081
74	14	0.883337152	0.033234054	0.278244879
74	14	0.902420327	0.037071486	0.41635013
74	14	0.882670379	0.050570135	0.447580991
74	14	0.90101472	0.07361727	0.249372081
74	14	0.882297651	0.060261081	0.278244879
74	14	0.901380826	0.064098514	0.41635013
74	14	0.881630878	0.077597162	0.447580991
74	14	0.899975219	0.100644297	0.249372081
74	14	0.88125815	0.087288108	0.278244879
74	14	0.900341325	0.091125541	0.41635013
74	14	0.880591377	0.104624189	0.447580991
74	14	0.898935718	0.127671324	0.249372081
74	14	0.880218649	0.114315135	0.278244879
74	14	0.899301824	0.118152568	0.41635013
74	14	0.879551876	0.131651216	0.447580991
74	14	0.897896217	0.154698351	0.249372081
74	14	0.879179148	0.141342162	0.278244879
74	14	0.898262323	0.145179595	0.41635013
74	14	0.878512375	0.158678243	0.447580991
74	14	0.896856716	0.181725378	0.249372081
74	14	0.878139647	0.168369189	0.278244879
74	14	0.897222822	0.172206622	0.41635013
74	14	0.877472874	0.18570527	0.447580991
74	14	0.895817215	0.208752405	0.249372081
74	14	0.877100146	0.195396216	0.278244879
74	14	0.896183321	0.199233649	0.41635013
74	14	0.876433373	0.212732297	0.447580991
74	14	0.894777714	0.235779432	0.249372081
74	14	0.876060644	0.222423243	0.278244879
74	14	0.89514382	0.226260676	0.41635013
74	14	0.875393872	0.239759324	0.447580991
74	14	0.893738213	0.262806459	0.249372081
74	14	0.875021143	0.24945027	0.278244879
74	14	0.894104319	0.253287703	0.41635013
74	14	0.874354371	0.266786351	0.447580991
74	14	0.892698712	0.289833486	0.249372081
74	14	0.873981642	0.276477297	0.278244879
74	14	0.893064818	0.28031473	0.41635013
74	14	0.87331487	0.293813378	0.447580991
74	14	0.891659211	0.316860514	0.249372081
74	14	0.872942141	0.303504324	0.278244879
74	14	0.892025317	0.307341757	0.41635013
74	14	0.872275369	0.320840405	0.447580991
74	14	0.89061971	0.343887541	0.249372081
74	14	0.87190264	0.330531351	0.278244879
74	14	0.890985816	0.334368784	0.41635013
74	14	0.871235868	0.347867432	0.447580991
74	14	0.889580209	0.370914568	0.249372081
74	14	0.870863139	0.357558378	0.278244879
74	14	0.889946315	0.361395811	0.41635013
74	14	0.870196367	0.374894459	0.447580991
74	14	0.888540708	0.397941595	0.249372081
74	14	0.869823638	0.384585405	0.278244879
74	14	0.888906814	0.388422838	0.41635013
74	14	0.869156866	0.401921486	0.447580991
74	14	0.887501207	0.424968622	0.249372081
74	14	0.868784137	0.411612432	0.278244879
74	14	0.887867313	0.415449865	0.41635013
74	14	0.868117365	0.428948514	0.447580991
74	14	0.886461706	0.451995649	0.249372081
74	14	0.867744636	0.438639459	0.278244879
74	14	0.886827812	0.442476892	0.41635013
74	14	0.867077864	0.455975541	0.447580991
74	14	0.885422205	0.479022676	0.249372081
74	14	0.866705135	0.465666486	0.278244879
74	14	0.885788311	0.469503919	0.41635013
74	14	0.866038363	0.483002568	0.447580991
74	14	0.884382704	0.506049703	0.249372081
74	14	0.865665634	0.492693514	0.278244879
74	14	0.88474881	0.496530946	0.41635013
74	14	0.864998862	0.510029595	0.447580991
74	14	0.883343203	0.53307673	0.249372081
74	14	0.864626133	0.519720541	0.278244879
74	14	0.883709309	0.523557973	0.41635013
74	14	0.863959361	0.537056622	0.447580991
74	14	0.882303702	0.560103757	0.249372081
74	14	0.863586632	0.546747568	0.278244879
74	14	0.882669808	0.550585	0.41635013
74	14	0.86291986	0.564083649	0.447580991
74	14	0.881264201	0.587130784	0.249372081
74	14	0.862547131	0.573774595	0.278244879
74	14	0.881630307	0.577612027	0.41635013
74	14	0.861880359	0.591110676	0.447580991
74	14	0.8802247	0.614157811	0.249372081
74	14	0.86150763	0.600801622	0.278244879
74	14	0.880590806	0.604639054	0.41635013
74	14	0.860840858	0.618137703	0.447580991
74	14	0.879185199	0.641184838	0.249372081
74	14	0.860468129	0.627828649	0.278244879
74	14	0.879551305	0.631666081	0.41635013
74	14	0.859801357	0.64516473	0.447580991
74	14	0.878145698	0.668211865	0.249372081
74	14	0.859428628	0.654855676	0.278244879
74	14	0.878511804	0.658693108	0.41635013
74	14	0.858761856	0.672191757	0.447580991
74	14	0.877106196	0.695238892	0.249372081
74	14	0.858389127	0.681882703	0.278244879
74	14	0.877472302	0.685720135	0.41635013
74	14	0.857722354	0.699218784	0.447580991
74	14	0.876066695	0.722265919	0.249372081
74	14	0.857349626	0.70890973	0.278244879
74	14	0.876432801	0.712747162	0.41635013
74	14	0.856682853	0.726245811	0.447580991
74	14	0.875027194	0.749292946	0.249372081
74	14	0.856310125	0.735936757	0.278244879
74	14	0.8753933	0.739774189	0.41635013
74	14	0.855643352	0.753272838	0.447580991
74	14	0.873987693	0.776319973	0.249372081
74	14	0.855270624	0.762963784	0.278244879
74	14	0.874353799	0.766801216	0.41635013
74	14	0.854603851	0.780299865	0.447580991
74	14	0.872948192	0.803347	0.249372081
74	14	0.854231123	0.789990811	0.278244879
74	14	0.873314298	0.793828243	0.41635013
74	14	0.85356435	0.807326892	0.447580991
74	14	0.871908691	0.830374027	0.249372081
74	14	0.853191622	0.817017838	0.278244879
74	14	0.872274797	0.82085527	0.41635013
74	14	0.852524849	0.834353919	0.447580991
74	14	0.87086919	0.857401054	0.249372081
74	14	0.852152121	0.844044865	0.278244879
74	14	0.871235296	0.847882297	0.41635013
74	14	0.851485348	0.861380946	0.447580991
74	14	0.869829689	0.884428081	0.249372081
74	14	0.85111262	0.871071892	0.278244879
74	14	0.870195795	0.874909324	0.41635013
74	14	0.850445847	0.888407973	0.447580991
74	14	0.868790188	0.911455108	0.249372081
74	14	0.850073119	0.898098919	0.278244879
74	14	0.869156294	0.901936351	0.41635013
74	14	0.849406346	0.915435	0.447580991
74	14	0.867750687	0.938482135	0.249372081
74	14	0.849033617	0.925125946	0.278244879
74	14	0.868116793	0.928963378	0.41635013
74	14	0.848366845	0.942462027	0.447580991
74	14	0.866711186	0.965509162	0.249372081
74	14	0.847994116	0.952152973	0.278244879
74	14	0.867077292	0.955990405	0.41635013
74	14	0.847327344	0.969489054	0.447580991
74	14	0.865671685	0.992536189	0.249372081
74	14	0.846954615	0.97918	0.278244879
74	14	0.866037791	0.983017432	0.41635013
74	14	0.846287843	0.996516081	0.447580991
74	14	0.941555261	0.019563216	0.249372081
74	14	0.922838191	0.006207027	0.278244879
74	14	0.941921367	0.010044459	0.41635013
74	14	0.922171419	0.023543108	0.447580991
74	14	0.94051576	0.046590243	0.249372081
74	14	0.92179869	0.033234054	0.278244879
74	14	0.940881866	0.037071486	0.41635013
74	14	0.921131918	0.050570135	0.447580991
74	14	0.939476259	0.07361727	0.249372081
74	14	0.920759189	0.060261081	0.278244879
74	14	0.939842365	0.064098514	0.41635013
74	14	0.920092417	0.077597162	0.447580991
74	14	0.938436758	0.100644297	0.249372081
74	14	0.919719688	0.087288108	0.278244879
74	14	0.938802864	0.091125541	0.41635013
74	14	0.919052916	0.104624189	0.447580991
74	14	0.937397257	0.127671324	0.249372081
74	14	0.918680187	0.114315135	0.278244879
74	14	0.937763363	0.118152568	0.41635013
74	14	0.918013415	0.131651216	0.447580991
74	14	0.936357756	0.154698351	0.249372081
74	14	0.917640686	0.141342162	0.278244879
74	14	0.936723862	0.145179595	0.41635013
74	14	0.916973914	0.158678243	0.447580991
74	14	0.935318255	0.181725378	0.249372081
74	14	0.916601185	0.168369189	0.278244879
74	14	0.935684361	0.172206622	0.41635013
74	14	0.915934413	0.18570527	0.447580991
74	14	0.934278754	0.208752405	0.249372081
74	14	0.915561684	0.195396216	0.278244879
74	14	0.93464486	0.199233649	0.41635013
74	14	0.914894912	0.212732297	0.447580991
74	14	0.933239253	0.235779432	0.249372081
74	14	0.914522183	0.222423243	0.278244879
74	14	0.933605359	0.226260676	0.41635013
74	14	0.913855411	0.239759324	0.447580991
74	14	0.932199752	0.262806459	0.249372081
74	14	0.913482682	0.24945027	0.278244879
74	14	0.932565858	0.253287703	0.41635013
74	14	0.91281591	0.266786351	0.447580991
74	14	0.931160251	0.289833486	0.249372081
74	14	0.912443181	0.276477297	0.278244879
74	14	0.931526357	0.28031473	0.41635013
74	14	0.911776409	0.293813378	0.447580991
74	14	0.930120749	0.316860514	0.249372081
74	14	0.91140368	0.303504324	0.278244879
74	14	0.930486856	0.307341757	0.41635013
74	14	0.910736907	0.320840405	0.447580991
74	14	0.929081248	0.343887541	0.249372081
74	14	0.910364179	0.330531351	0.278244879
74	14	0.929447354	0.334368784	0.41635013
74	14	0.909697406	0.347867432	0.447580991
74	14	0.928041747	0.370914568	0.249372081
74	14	0.909324678	0.357558378	0.278244879
74	14	0.928407853	0.361395811	0.41635013
74	14	0.908657905	0.374894459	0.447580991
74	14	0.927002246	0.397941595	0.249372081
74	14	0.908285177	0.384585405	0.278244879
74	14	0.927368352	0.388422838	0.41635013
74	14	0.907618404	0.401921486	0.447580991
74	14	0.925962745	0.424968622	0.249372081
74	14	0.907245676	0.411612432	0.278244879
74	14	0.926328851	0.415449865	0.41635013
74	14	0.906578903	0.428948514	0.447580991
74	14	0.924923244	0.451995649	0.249372081
74	14	0.906206175	0.438639459	0.278244879
74	14	0.92528935	0.442476892	0.41635013
74	14	0.905539402	0.455975541	0.447580991
74	14	0.923883743	0.479022676	0.249372081
74	14	0.905166674	0.465666486	0.278244879
74	14	0.924249849	0.469503919	0.41635013
74	14	0.904499901	0.483002568	0.447580991
74	14	0.922844242	0.506049703	0.249372081
74	14	0.904127173	0.492693514	0.278244879
74	14	0.923210348	0.496530946	0.41635013
74	14	0.9034604	0.510029595	0.447580991
74	14	0.921804741	0.53307673	0.249372081
74	14	0.903087672	0.519720541	0.278244879
74	14	0.922170847	0.523557973	0.41635013
74	14	0.902420899	0.537056622	0.447580991
74	14	0.92076524	0.560103757	0.249372081
74	14	0.90204817	0.546747568	0.278244879
74	14	0.921131346	0.550585	0.41635013
74	14	0.901381398	0.564083649	0.447580991
74	14	0.919725739	0.587130784	0.249372081
74	14	0.901008669	0.573774595	0.278244879
74	14	0.920091845	0.577612027	0.41635013
74	14	0.900341897	0.591110676	0.447580991
74	14	0.918686238	0.614157811	0.249372081
74	14	0.899969168	0.600801622	0.278244879
74	14	0.919052344	0.604639054	0.41635013
74	14	0.899302396	0.618137703	0.447580991
74	14	0.917646737	0.641184838	0.249372081
74	14	0.898929667	0.627828649	0.278244879
74	14	0.918012843	0.631666081	0.41635013
74	14	0.898262895	0.64516473	0.447580991
74	14	0.916607236	0.668211865	0.249372081
74	14	0.897890166	0.654855676	0.278244879
74	14	0.916973342	0.658693108	0.41635013
74	14	0.897223394	0.672191757	0.447580991
74	14	0.915567735	0.695238892	0.249372081
74	14	0.896850665	0.681882703	0.278244879
74	14	0.915933841	0.685720135	0.41635013
74	14	0.896183893	0.699218784	0.447580991
74	14	0.914528234	0.722265919	0.249372081
74	14	0.895811164	0.70890973	0.278244879
74	14	0.91489434	0.712747162	0.41635013
74	14	0.895144392	0.726245811	0.447580991
74	14	0.913488733	0.749292946	0.249372081
74	14	0.894771663	0.735936757	0.278244879
74	14	0.913854839	0.739774189	0.41635013
74	14	0.894104891	0.753272838	0.447580991
74	14	0.912449232	0.776319973	0.249372081
74	14	0.893732162	0.762963784	0.278244879
74	14	0.912815338	0.766801216	0.41635013
74	14	0.89306539	0.780299865	0.447580991
74	14	0.911409731	0.803347	0.249372081
74	14	0.892692661	0.789990811	0.278244879
74	14	0.911775837	0.793828243	0.41635013
74	14	0.892025889	0.807326892	0.447580991
74	14	0.91037023	0.830374027	0.249372081
74	14	0.89165316	0.817017838	0.278244879
74	14	0.910736336	0.82085527	0.41635013
74	14	0.890986388	0.834353919	0.447580991
74	14	0.909330729	0.857401054	0.249372081
74	14	0.890613659	0.844044865	0.278244879
74	14	0.909696835	0.847882297	0.41635013
74	14	0.889946887	0.861380946	0.447580991
74	14	0.908291228	0.884428081	0.249372081
74	14	0.889574158	0.871071892	0.278244879
74	14	0.908657334	0.874909324	0.41635013
74	14	0.888907386	0.888407973	0.447580991
74	14	0.907251727	0.911455108	0.249372081
74	14	0.888534657	0.898098919	0.278244879
74	14	0.907617833	0.901936351	0.41635013
74	14	0.887867885	0.915435	0.447580991
74	14	0.906212226	0.938482135	0.249372081
74	14	0.887495156	0.925125946	0.278244879
74	14	0.906578332	0.928963378	0.41635013
74	14	0.886828384	0.942462027	0.447580991
74	14	0.905172725	0.965509162	0.249372081
74	14	0.886455655	0.952152973	0.278244879
74	14	0.905538831	0.955990405	0.41635013
74	14	0.885788883	0.969489054	0.447580991
74	14	0.904133223	0.992536189	0.249372081
74	14	0.885416154	0.97918	0.278244879
74	14	0.90449933	0.983017432	0.41635013
74	14	0.884749381	0.996516081	0.447580991
74	14	0.980016799	0.019563216	0.249372081
74	14	0.96129973	0.006207027	0.278244879
74	14	0.980382905	0.010044459	0.41635013
74	14	0.960632957	0.023543108	0.447580991
74	14	0.978977298	0.046590243	0.249372081
74	14	0.960260229	0.033234054	0.278244879
74	14	0.979343404	0.037071486	0.41635013
74	14	0.959593456	0.050570135	0.447580991
74	14	0.977937797	0.07361727	0.249372081
74	14	0.959220728	0.060261081	0.278244879
74	14	0.978303903	0.064098514	0.41635013
74	14	0.958553955	0.077597162	0.447580991
74	14	0.976898296	0.100644297	0.249372081
74	14	0.958181227	0.087288108	0.278244879
74	14	0.977264402	0.091125541	0.41635013
74	14	0.957514454	0.104624189	0.447580991
74	14	0.975858795	0.127671324	0.249372081
74	14	0.957141726	0.114315135	0.278244879
74	14	0.976224901	0.118152568	0.41635013
74	14	0.956474953	0.131651216	0.447580991
74	14	0.974819294	0.154698351	0.249372081
74	14	0.956102225	0.141342162	0.278244879
74	14	0.9751854	0.145179595	0.41635013
74	14	0.955435452	0.158678243	0.447580991
74	14	0.973779793	0.181725378	0.249372081
74	14	0.955062723	0.168369189	0.278244879
74	14	0.974145899	0.172206622	0.41635013
74	14	0.954395951	0.18570527	0.447580991
74	14	0.972740292	0.208752405	0.249372081
74	14	0.954023222	0.195396216	0.278244879
74	14	0.973106398	0.199233649	0.41635013
74	14	0.95335645	0.212732297	0.447580991
74	14	0.971700791	0.235779432	0.249372081
74	14	0.952983721	0.222423243	0.278244879
74	14	0.972066897	0.226260676	0.41635013
74	14	0.952316949	0.239759324	0.447580991
74	14	0.97066129	0.262806459	0.249372081
74	14	0.95194422	0.24945027	0.278244879
74	14	0.971027396	0.253287703	0.41635013
74	14	0.951277448	0.266786351	0.447580991
74	14	0.969621789	0.289833486	0.249372081
74	14	0.950904719	0.276477297	0.278244879
74	14	0.969987895	0.28031473	0.41635013
74	14	0.950237947	0.293813378	0.447580991
74	14	0.968582288	0.316860514	0.249372081
74	14	0.949865218	0.303504324	0.278244879
74	14	0.968948394	0.307341757	0.41635013
74	14	0.949198446	0.320840405	0.447580991
74	14	0.967542787	0.343887541	0.249372081
74	14	0.948825717	0.330531351	0.278244879
74	14	0.967908893	0.334368784	0.41635013
74	14	0.948158945	0.347867432	0.447580991
74	14	0.966503286	0.370914568	0.249372081
74	14	0.947786216	0.357558378	0.278244879
74	14	0.966869392	0.361395811	0.41635013
74	14	0.947119444	0.374894459	0.447580991
74	14	0.965463785	0.397941595	0.249372081
74	14	0.946746715	0.384585405	0.278244879
74	14	0.965829891	0.388422838	0.41635013
74	14	0.946079943	0.401921486	0.447580991
74	14	0.964424284	0.424968622	0.249372081
74	14	0.945707214	0.411612432	0.278244879
74	14	0.96479039	0.415449865	0.41635013
74	14	0.945040442	0.428948514	0.447580991
74	14	0.963384783	0.451995649	0.249372081
74	14	0.944667713	0.438639459	0.278244879
74	14	0.963750889	0.442476892	0.41635013
74	14	0.944000941	0.455975541	0.447580991
74	14	0.962345282	0.479022676	0.249372081
74	14	0.943628212	0.465666486	0.278244879
74	14	0.962711388	0.469503919	0.41635013
74	14	0.94296144	0.483002568	0.447580991
74	14	0.961305781	0.506049703	0.249372081
74	14	0.942588711	0.492693514	0.278244879
74	14	0.961671887	0.496530946	0.41635013
74	14	0.941921939	0.510029595	0.447580991
74	14	0.96026628	0.53307673	0.249372081
74	14	0.94154921	0.519720541	0.278244879
74	14	0.960632386	0.523557973	0.41635013
74	14	0.940882438	0.537056622	0.447580991
74	14	0.959226779	0.560103757	0.249372081
74	14	0.940509709	0.546747568	0.278244879
74	14	0.959592885	0.550585	0.41635013
74	14	0.939842937	0.564083649	0.447580991
74	14	0.958187278	0.587130784	0.249372081
74	14	0.939470208	0.573774595	0.278244879
74	14	0.958553384	0.577612027	0.41635013
74	14	0.938803436	0.591110676	0.447580991
74	14	0.957147777	0.614157811	0.249372081
74	14	0.938430707	0.600801622	0.278244879
74	14	0.957513883	0.604639054	0.41635013
74	14	0.937763935	0.618137703	0.447580991
74	14	0.956108275	0.641184838	0.249372081
74	14	0.937391206	0.627828649	0.278244879
74	14	0.956474381	0.631666081	0.41635013
74	14	0.936724433	0.64516473	0.447580991
74	14	0.955068774	0.668211865	0.249372081
74	14	0.936351705	0.654855676	0.278244879
74	14	0.95543488	0.658693108	0.41635013
74	14	0.935684932	0.672191757	0.447580991
74	14	0.954029273	0.695238892	0.249372081
74	14	0.935312204	0.681882703	0.278244879
74	14	0.954395379	0.685720135	0.41635013
74	14	0.934645431	0.699218784	0.447580991
74	14	0.952989772	0.722265919	0.249372081
74	14	0.934272703	0.70890973	0.278244879
74	14	0.953355878	0.712747162	0.41635013
74	14	0.93360593	0.726245811	0.447580991
74	14	0.951950271	0.749292946	0.249372081
74	14	0.933233202	0.735936757	0.278244879
74	14	0.952316377	0.739774189	0.41635013
74	14	0.932566429	0.753272838	0.447580991
74	14	0.95091077	0.776319973	0.249372081
74	14	0.932193701	0.762963784	0.278244879
74	14	0.951276876	0.766801216	0.41635013
74	14	0.931526928	0.780299865	0.447580991
74	14	0.949871269	0.803347	0.249372081
74	14	0.9311542	0.789990811	0.278244879
74	14	0.950237375	0.793828243	0.41635013
74	14	0.930487427	0.807326892	0.447580991
74	14	0.948831768	0.830374027	0.249372081
74	14	0.930114699	0.817017838	0.278244879
74	14	0.949197874	0.82085527	0.41635013
74	14	0.929447926	0.834353919	0.447580991
74	14	0.947792267	0.857401054	0.249372081
74	14	0.929075198	0.844044865	0.278244879
74	14	0.948158373	0.847882297	0.41635013
74	14	0.928408425	0.861380946	0.447580991
74	14	0.946752766	0.884428081	0.249372081
74	14	0.928035696	0.871071892	0.278244879
74	14	0.947118872	0.874909324	0.41635013
74	14	0.927368924	0.888407973	0.447580991
74	14	0.945713265	0.911455108	0.249372081
74	14	0.926996195	0.898098919	0.278244879
74	14	0.946079371	0.901936351	0.41635013
74	14	0.926329423	0.915435	0.447580991
74	14	0.944673764	0.938482135	0.249372081
74	14	0.925956694	0.925125946	0.278244879
74	14	0.94503987	0.928963378	0.41635013
74	14	0.925289922	0.942462027	0.447580991
74	14	0.943634263	0.965509162	0.249372081
74	14	0.924917193	0.952152973	0.278244879
74	14	0.944000369	0.955990405	0.41635013
74	14	0.924250421	0.969489054	0.447580991
74	14	0.942594762	0.992536189	0.249372081
74	14	0.923877692	0.97918	0.278244879
74	14	0.942960868	0.983017432	0.41635013
74	14	0.92321092	0.996516081	0.447580991
74	14	0.017438837	0.046590243	0.249372081
74	14	0.998721767	0.033234054	0.278244879
74	14	0.017804943	0.037071486	0.41635013
74	14	0.998054995	0.050570135	0.447580991
74	14	0.016399336	0.07361727	0.249372081
74	14	0.997682266	0.060261081	0.278244879
74	14	0.016765442	0.064098514	0.41635013
74	14	0.997015494	0.077597162	0.447580991
74	14	0.015359835	0.100644297	0.249372081
74	14	0.996642765	0.087288108	0.278244879
74	14	0.015725941	0.091125541	0.41635013
74	14	0.995975993	0.104624189	0.447580991
74	14	0.014320334	0.127671324	0.249372081
74	14	0.995603264	0.114315135	0.278244879
74	14	0.01468644	0.118152568	0.41635013
74	14	0.994936492	0.131651216	0.447580991
74	14	0.013280833	0.154698351	0.249372081
74	14	0.994563763	0.141342162	0.278244879
74	14	0.013646939	0.145179595	0.41635013
74	14	0.993896991	0.158678243	0.447580991
74	14	0.012241332	0.181725378	0.249372081
74	14	0.993524262	0.168369189	0.278244879
74	14	0.012607438	0.172206622	0.41635013
74	14	0.99285749	0.18570527	0.447580991
74	14	0.011201831	0.208752405	0.249372081
74	14	0.992484761	0.195396216	0.278244879
74	14	0.011567937	0.199233649	0.41635013
74	14	0.991817989	0.212732297	0.447580991
74	14	0.01016233	0.235779432	0.249372081
74	14	0.99144526	0.222423243	0.278244879
74	14	0.010528436	0.226260676	0.41635013
74	14	0.990778488	0.239759324	0.447580991
74	14	0.009122828	0.262806459	0.249372081
74	14	0.990405759	0.24945027	0.278244879
74	14	0.009488935	0.253287703	0.41635013
74	14	0.989738986	0.266786351	0.447580991
74	14	0.008083327	0.289833486	0.249372081
74	14	0.989366258	0.276477297	0.278244879
74	14	0.008449433	0.28031473	0.41635013
74	14	0.988699485	0.293813378	0.447580991
74	14	0.007043826	0.316860514	0.249372081
74	14	0.988326757	0.303504324	0.278244879
74	14	0.007409932	0.307341757	0.41635013
74	14	0.987659984	0.320840405	0.447580991
74	14	0.006004325	0.343887541	0.249372081
74	14	0.987287256	0.330531351	0.278244879
74	14	0.006370431	0.334368784	0.41635013
74	14	0.986620483	0.347867432	0.447580991
74	14	0.004964824	0.370914568	0.249372081
74	14	0.986247755	0.357558378	0.278244879
74	14	0.00533093	0.361395811	0.41635013
74	14	0.985580982	0.374894459	0.447580991
74	14	0.003925323	0.397941595	0.249372081
74	14	0.985208254	0.384585405	0.278244879
74	14	0.004291429	0.388422838	0.41635013
74	14	0.984541481	0.401921486	0.447580991
74	14	0.002885822	0.424968622	0.249372081
74	14	0.984168753	0.411612432	0.278244879
74	14	0.003251928	0.415449865	0.41635013
74	14	0.98350198	0.428948514	0.447580991
74	14	0.001846321	0.451995649	0.249372081
74	14	0.983129252	0.438639459	0.278244879
74	14	0.002212427	0.442476892	0.41635013
74	14	0.982462479	0.455975541	0.447580991
74	14	0.00080682	0.479022676	0.249372081
74	14	0.982089751	0.465666486	0.278244879
74	14	0.001172926	0.469503919	0.41635013
74	14	0.981422978	0.483002568	0.447580991
74	14	0.999767319	0.506049703	0.249372081
74	14	0.981050249	0.492693514	0.278244879
74	14	0.000133425	0.496530946	0.41635013
74	14	0.980383477	0.510029595	0.447580991
74	14	0.998727818	0.53307673	0.249372081
74	14	0.980010748	0.519720541	0.278244879
74	14	0.999093924	0.523557973	0.41635013
74	14	0.979343976	0.537056622	0.447580991
74	14	0.997688317	0.560103757	0.249372081
74	14	0.978971247	0.546747568	0.278244879
74	14	0.998054423	0.550585	0.41635013
74	14	0.978304475	0.564083649	0.447580991
74	14	0.996648816	0.587130784	0.249372081
74	14	0.977931746	0.573774595	0.278244879
74	14	0.997014922	0.577612027	0.41635013
74	14	0.977264974	0.591110676	0.447580991
74	14	0.995609315	0.614157811	0.249372081
74	14	0.976892245	0.600801622	0.278244879
74	14	0.995975421	0.604639054	0.41635013
74	14	0.976225473	0.618137703	0.447580991
74	14	0.994569814	0.641184838	0.249372081
74	14	0.975852744	0.627828649	0.278244879
74	14	0.99493592	0.631666081	0.41635013
74	14	0.975185972	0.64516473	0.447580991
74	14	0.993530313	0.668211865	0.249372081
74	14	0.974813243	0.654855676	0.278244879
74	14	0.993896419	0.658693108	0.41635013
74	14	0.974146471	0.672191757	0.447580991
74	14	0.992490812	0.695238892	0.249372081
74	14	0.973773742	0.681882703	0.278244879
74	14	0.992856918	0.685720135	0.41635013
74	14	0.97310697	0.699218784	0.447580991
74	14	0.991451311	0.722265919	0.249372081
74	14	0.972734241	0.70890973	0.278244879
74	14	0.991817417	0.712747162	0.41635013
74	14	0.972067469	0.726245811	0.447580991
74	14	0.99041181	0.749292946	0.249372081
74	14	0.97169474	0.735936757	0.278244879
74	14	0.990777916	0.739774189	0.41635013
74	14	0.971027968	0.753272838	0.447580991
74	14	0.989372309	0.776319973	0.249372081
74	14	0.970655239	0.762963784	0.278244879
74	14	0.989738415	0.766801216	0.41635013
74	14	0.969988467	0.780299865	0.447580991
74	14	0.988332808	0.803347	0.249372081
74	14	0.969615738	0.789990811	0.278244879
74	14	0.988698914	0.793828243	0.41635013
74	14	0.968948966	0.807326892	0.447580991
74	14	0.987293307	0.830374027	0.249372081
74	14	0.968576237	0.817017838	0.278244879
74	14	0.987659413	0.82085527	0.41635013
74	14	0.967909465	0.834353919	0.447580991
74	14	0.986253806	0.857401054	0.249372081
74	14	0.967536736	0.844044865	0.278244879
74	14	0.986619912	0.847882297	0.41635013
74	14	0.966869964	0.861380946	0.447580991
74	14	0.985214305	0.884428081	0.249372081
74	14	0.966497235	0.871071892	0.278244879
74	14	0.985580411	0.874909324	0.41635013
74	14	0.965830463	0.888407973	0.447580991
74	14	0.984174804	0.911455108	0.249372081
74	14	0.965457734	0.898098919	0.278244879
74	14	0.98454091	0.901936351	0.41635013
74	14	0.964790962	0.915435	0.447580991
74	14	0.983135302	0.938482135	0.249372081
74	14	0.964418233	0.925125946	0.278244879
74	14	0.983501409	0.928963378	0.41635013
74	14	0.96375146	0.942462027	0.447580991
74	14	0.982095801	0.965509162	0.249372081
74	14	0.963378732	0.952152973	0.278244879
74	14	0.982461907	0.955990405	0.41635013
74	14	0.962711959	0.969489054	0.447580991
74	14	0.9810563	0.992536189	0.249372081
74	14	0.962339231	0.97918	0.278244879
74	14	0.981422406	0.983017432	0.41635013
74	14	0.961672458	0.996516081	0.447580991
74	14	0.998667114	0.034655027	0.552613519
74	14	0.978931024	0.047793378	0.583582539
74	14	0.998304605	0.04408027	0.721964593
74	14	0.979604442	0.030283514	0.750627919
74	14	0.997627613	0.061682054	0.552613519
74	14	0.977891523	0.074820405	0.583582539
74	14	0.997265104	0.071107297	0.721964593
74	14	0.978564941	0.057310541	0.750627919
74	14	0.996588112	0.088709081	0.552613519
74	14	0.976852022	0.101847432	0.583582539
74	14	0.996225603	0.098134324	0.721964593
74	14	0.97752544	0.084337568	0.750627919
74	14	0.995548611	0.115736108	0.552613519
74	14	0.975812521	0.128874459	0.583582539
74	14	0.995186102	0.125161351	0.721964593
74	14	0.976485939	0.111364595	0.750627919
74	14	0.99450911	0.142763135	0.552613519
74	14	0.97477302	0.155901486	0.583582539
74	14	0.994146601	0.152188378	0.721964593
74	14	0.975446438	0.138391622	0.750627919
74	14	0.993469609	0.169790162	0.552613519
74	14	0.973733519	0.182928514	0.583582539
74	14	0.9931071	0.179215405	0.721964593
74	14	0.974406937	0.165418649	0.750627919
74	14	0.992430108	0.196817189	0.552613519
74	14	0.972694018	0.209955541	0.583582539
74	14	0.992067599	0.206242432	0.721964593
74	14	0.973367436	0.192445676	0.750627919
74	14	0.991390607	0.223844216	0.552613519
74	14	0.971654517	0.236982568	0.583582539
74	14	0.991028098	0.233269459	0.721964593
74	14	0.972327935	0.219472703	0.750627919
74	14	0.990351106	0.250871243	0.552613519
74	14	0.970615016	0.264009595	0.583582539
74	14	0.989988597	0.260296486	0.721964593
74	14	0.971288433	0.24649973	0.750627919
74	14	0.989311605	0.27789827	0.552613519
74	14	0.969575515	0.291036622	0.583582539
74	14	0.988949096	0.287323514	0.721964593
74	14	0.970248932	0.273526757	0.750627919
74	14	0.988272104	0.304925297	0.552613519
74	14	0.968536014	0.318063649	0.583582539
74	14	0.987909595	0.314350541	0.721964593
74	14	0.969209431	0.300553784	0.750627919
74	14	0.987232603	0.331952324	0.552613519
74	14	0.967496512	0.345090676	0.583582539
74	14	0.986870094	0.341377568	0.721964593
74	14	0.96816993	0.327580811	0.750627919
74	14	0.986193102	0.358979351	0.552613519
74	14	0.966457011	0.372117703	0.583582539
74	14	0.985830593	0.368404595	0.721964593
74	14	0.967130429	0.354607838	0.750627919
74	14	0.985153601	0.386006378	0.552613519
74	14	0.96541751	0.39914473	0.583582539
74	14	0.984791091	0.395431622	0.721964593
74	14	0.966090928	0.381634865	0.750627919
74	14	0.9841141	0.413033405	0.552613519
74	14	0.964378009	0.426171757	0.583582539
74	14	0.98375159	0.422458649	0.721964593
74	14	0.965051427	0.408661892	0.750627919
74	14	0.983074599	0.440060432	0.552613519
74	14	0.963338508	0.453198784	0.583582539
74	14	0.982712089	0.449485676	0.721964593
74	14	0.964011926	0.435688919	0.750627919
74	14	0.982035098	0.467087459	0.552613519
74	14	0.962299007	0.480225811	0.583582539
74	14	0.981672588	0.476512703	0.721964593
74	14	0.962972425	0.462715946	0.750627919
74	14	0.980995597	0.494114486	0.552613519
74	14	0.961259506	0.507252838	0.583582539
74	14	0.980633087	0.50353973	0.721964593
74	14	0.961932924	0.489742973	0.750627919
74	14	0.979956096	0.521141514	0.552613519
74	14	0.960220005	0.534279865	0.583582539
74	14	0.979593586	0.530566757	0.721964593
74	14	0.960893423	0.51677	0.750627919
74	14	0.978916595	0.548168541	0.552613519
74	14	0.959180504	0.561306892	0.583582539
74	14	0.978554085	0.557593784	0.721964593
74	14	0.959853922	0.543797027	0.750627919
74	14	0.977877094	0.575195568	0.552613519
74	14	0.958141003	0.588333919	0.583582539
74	14	0.977514584	0.584620811	0.721964593
74	14	0.958814421	0.570824054	0.750627919
74	14	0.976837593	0.602222595	0.552613519
74	14	0.957101502	0.615360946	0.583582539
74	14	0.976475083	0.611647838	0.721964593
74	14	0.95777492	0.597851081	0.750627919
74	14	0.975798091	0.629249622	0.552613519
74	14	0.956062001	0.642387973	0.583582539
74	14	0.975435582	0.638674865	0.721964593
74	14	0.956735419	0.624878108	0.750627919
74	14	0.97475859	0.656276649	0.552613519
74	14	0.9550225	0.669415	0.583582539
74	14	0.974396081	0.665701892	0.721964593
74	14	0.955695918	0.651905135	0.750627919
74	14	0.973719089	0.683303676	0.552613519
74	14	0.953982999	0.696442027	0.583582539
74	14	0.97335658	0.692728919	0.721964593
74	14	0.954656417	0.678932162	0.750627919
74	14	0.972679588	0.710330703	0.552613519
74	14	0.952943498	0.723469054	0.583582539
74	14	0.972317079	0.719755946	0.721964593
74	14	0.953616916	0.705959189	0.750627919
74	14	0.971640087	0.73735773	0.552613519
74	14	0.951903997	0.750496081	0.583582539
74	14	0.971277578	0.746782973	0.721964593
74	14	0.952577415	0.732986216	0.750627919
74	14	0.970600586	0.764384757	0.552613519
74	14	0.950864496	0.777523108	0.583582539
74	14	0.970238077	0.77381	0.721964593
74	14	0.951537914	0.760013243	0.750627919
74	14	0.969561085	0.791411784	0.552613519
74	14	0.949824995	0.804550135	0.583582539
74	14	0.969198576	0.800837027	0.721964593
74	14	0.950498413	0.78704027	0.750627919
74	14	0.968521584	0.818438811	0.552613519
74	14	0.948785494	0.831577162	0.583582539
74	14	0.968159075	0.827864054	0.721964593
74	14	0.949458912	0.814067297	0.750627919
74	14	0.967482083	0.845465838	0.552613519
74	14	0.947745993	0.858604189	0.583582539
74	14	0.967119574	0.854891081	0.721964593
74	14	0.948419411	0.841094324	0.750627919
74	14	0.966442582	0.872492865	0.552613519
74	14	0.946706492	0.885631216	0.583582539
74	14	0.966080073	0.881918108	0.721964593
74	14	0.94737991	0.868121351	0.750627919
74	14	0.965403081	0.899519892	0.552613519
74	14	0.945666991	0.912658243	0.583582539
74	14	0.965040572	0.908945135	0.721964593
74	14	0.946340409	0.895148378	0.750627919
74	14	0.96436358	0.926546919	0.552613519
74	14	0.94462749	0.93968527	0.583582539
74	14	0.964001071	0.935972162	0.721964593
74	14	0.945300907	0.922175405	0.750627919
74	14	0.963324079	0.953573946	0.552613519
74	14	0.943587989	0.966712297	0.583582539
74	14	0.96296157	0.962999189	0.721964593
74	14	0.944261406	0.949202432	0.750627919
74	14	0.962284578	0.980600973	0.552613519
74	14	0.942548488	0.993739324	0.583582539
74	14	0.961922069	0.990026216	0.721964593
74	14	0.943221905	0.976229459	0.750627919
74	14	0.961245077	0.007628	0.552613519
74	14	0.941508986	0.020766351	0.583582539
74	14	0.960882568	0.017053243	0.721964593
74	14	0.942182404	0.003256486	0.750627919
74	14	0.960205576	0.034655027	0.552613519
74	14	0.940469485	0.047793378	0.583582539
74	14	0.959843067	0.04408027	0.721964593
74	14	0.941142903	0.030283514	0.750627919
74	14	0.959166075	0.061682054	0.552613519
74	14	0.939429984	0.074820405	0.583582539
74	14	0.958803565	0.071107297	0.721964593
74	14	0.940103402	0.057310541	0.750627919
74	14	0.958126574	0.088709081	0.552613519
74	14	0.938390483	0.101847432	0.583582539
74	14	0.957764064	0.098134324	0.721964593
74	14	0.939063901	0.084337568	0.750627919
74	14	0.957087073	0.115736108	0.552613519
74	14	0.937350982	0.128874459	0.583582539
74	14	0.956724563	0.125161351	0.721964593
74	14	0.9380244	0.111364595	0.750627919
74	14	0.956047572	0.142763135	0.552613519
74	14	0.936311481	0.155901486	0.583582539
74	14	0.955685062	0.152188378	0.721964593
74	14	0.936984899	0.138391622	0.750627919
74	14	0.955008071	0.169790162	0.552613519
74	14	0.93527198	0.182928514	0.583582539
74	14	0.954645561	0.179215405	0.721964593
74	14	0.935945398	0.165418649	0.750627919
74	14	0.95396857	0.196817189	0.552613519
74	14	0.934232479	0.209955541	0.583582539
74	14	0.95360606	0.206242432	0.721964593
74	14	0.934905897	0.192445676	0.750627919
74	14	0.952929069	0.223844216	0.552613519
74	14	0.933192978	0.236982568	0.583582539
74	14	0.952566559	0.233269459	0.721964593
74	14	0.933866396	0.219472703	0.750627919
74	14	0.951889568	0.250871243	0.552613519
74	14	0.932153477	0.264009595	0.583582539
74	14	0.951527058	0.260296486	0.721964593
74	14	0.932826895	0.24649973	0.750627919
74	14	0.950850067	0.27789827	0.552613519
74	14	0.931113976	0.291036622	0.583582539
74	14	0.950487557	0.287323514	0.721964593
74	14	0.931787394	0.273526757	0.750627919
74	14	0.949810565	0.304925297	0.552613519
74	14	0.930074475	0.318063649	0.583582539
74	14	0.949448056	0.314350541	0.721964593
74	14	0.930747893	0.300553784	0.750627919
74	14	0.948771064	0.331952324	0.552613519
74	14	0.929034974	0.345090676	0.583582539
74	14	0.948408555	0.341377568	0.721964593
74	14	0.929708392	0.327580811	0.750627919
74	14	0.947731563	0.358979351	0.552613519
74	14	0.927995473	0.372117703	0.583582539
74	14	0.947369054	0.368404595	0.721964593
74	14	0.928668891	0.354607838	0.750627919
74	14	0.946692062	0.386006378	0.552613519
74	14	0.926955972	0.39914473	0.583582539
74	14	0.946329553	0.395431622	0.721964593
74	14	0.92762939	0.381634865	0.750627919
74	14	0.945652561	0.413033405	0.552613519
74	14	0.925916471	0.426171757	0.583582539
74	14	0.945290052	0.422458649	0.721964593
74	14	0.926589889	0.408661892	0.750627919
74	14	0.94461306	0.440060432	0.552613519
74	14	0.92487697	0.453198784	0.583582539
74	14	0.944250551	0.449485676	0.721964593
74	14	0.925550388	0.435688919	0.750627919
74	14	0.943573559	0.467087459	0.552613519
74	14	0.923837469	0.480225811	0.583582539
74	14	0.94321105	0.476512703	0.721964593
74	14	0.924510887	0.462715946	0.750627919
74	14	0.942534058	0.494114486	0.552613519
74	14	0.922797968	0.507252838	0.583582539
74	14	0.942171549	0.50353973	0.721964593
74	14	0.923471386	0.489742973	0.750627919
74	14	0.941494557	0.521141514	0.552613519
74	14	0.921758467	0.534279865	0.583582539
74	14	0.941132048	0.530566757	0.721964593
74	14	0.922431885	0.51677	0.750627919
74	14	0.940455056	0.548168541	0.552613519
74	14	0.920718966	0.561306892	0.583582539
74	14	0.940092547	0.557593784	0.721964593
74	14	0.921392384	0.543797027	0.750627919
74	14	0.939415555	0.575195568	0.552613519
74	14	0.919679465	0.588333919	0.583582539
74	14	0.939053046	0.584620811	0.721964593
74	14	0.920352883	0.570824054	0.750627919
74	14	0.938376054	0.602222595	0.552613519
74	14	0.918639964	0.615360946	0.583582539
74	14	0.938013545	0.611647838	0.721964593
74	14	0.919313381	0.597851081	0.750627919
74	14	0.937336553	0.629249622	0.552613519
74	14	0.917600463	0.642387973	0.583582539
74	14	0.936974044	0.638674865	0.721964593
74	14	0.91827388	0.624878108	0.750627919
74	14	0.936297052	0.656276649	0.552613519
74	14	0.916560962	0.669415	0.583582539
74	14	0.935934543	0.665701892	0.721964593
74	14	0.917234379	0.651905135	0.750627919
74	14	0.935257551	0.683303676	0.552613519
74	14	0.91552146	0.696442027	0.583582539
74	14	0.934895042	0.692728919	0.721964593
74	14	0.916194878	0.678932162	0.750627919
74	14	0.93421805	0.710330703	0.552613519
74	14	0.914481959	0.723469054	0.583582539
74	14	0.933855541	0.719755946	0.721964593
74	14	0.915155377	0.705959189	0.750627919
74	14	0.933178549	0.73735773	0.552613519
74	14	0.913442458	0.750496081	0.583582539
74	14	0.93281604	0.746782973	0.721964593
74	14	0.914115876	0.732986216	0.750627919
74	14	0.932139048	0.764384757	0.552613519
74	14	0.912402957	0.777523108	0.583582539
74	14	0.931776538	0.77381	0.721964593
74	14	0.913076375	0.760013243	0.750627919
74	14	0.931099547	0.791411784	0.552613519
74	14	0.911363456	0.804550135	0.583582539
74	14	0.930737037	0.800837027	0.721964593
74	14	0.912036874	0.78704027	0.750627919
74	14	0.930060046	0.818438811	0.552613519
74	14	0.910323955	0.831577162	0.583582539
74	14	0.929697536	0.827864054	0.721964593
74	14	0.910997373	0.814067297	0.750627919
74	14	0.929020545	0.845465838	0.552613519
74	14	0.909284454	0.858604189	0.583582539
74	14	0.928658035	0.854891081	0.721964593
74	14	0.909957872	0.841094324	0.750627919
74	14	0.927981044	0.872492865	0.552613519
74	14	0.908244953	0.885631216	0.583582539
74	14	0.927618534	0.881918108	0.721964593
74	14	0.908918371	0.868121351	0.750627919
74	14	0.926941543	0.899519892	0.552613519
74	14	0.907205452	0.912658243	0.583582539
74	14	0.926579033	0.908945135	0.721964593
74	14	0.90787887	0.895148378	0.750627919
74	14	0.925902042	0.926546919	0.552613519
74	14	0.906165951	0.93968527	0.583582539
74	14	0.925539532	0.935972162	0.721964593
74	14	0.906839369	0.922175405	0.750627919
74	14	0.924862541	0.953573946	0.552613519
74	14	0.90512645	0.966712297	0.583582539
74	14	0.924500031	0.962999189	0.721964593
74	14	0.905799868	0.949202432	0.750627919
74	14	0.92382304	0.980600973	0.552613519
74	14	0.904086949	0.993739324	0.583582539
74	14	0.92346053	0.990026216	0.721964593
74	14	0.904760367	0.976229459	0.750627919
74	14	0.922783538	0.007628	0.552613519
74	14	0.903047448	0.020766351	0.583582539
74	14	0.922421029	0.017053243	0.721964593
74	14	0.903720866	0.003256486	0.750627919
74	14	0.921744037	0.034655027	0.552613519
74	14	0.902007947	0.047793378	0.583582539
74	14	0.921381528	0.04408027	0.721964593
74	14	0.902681365	0.030283514	0.750627919
74	14	0.920704536	0.061682054	0.552613519
74	14	0.900968446	0.074820405	0.583582539
74	14	0.920342027	0.071107297	0.721964593
74	14	0.901641864	0.057310541	0.750627919
74	14	0.919665035	0.088709081	0.552613519
74	14	0.899928945	0.101847432	0.583582539
74	14	0.919302526	0.098134324	0.721964593
74	14	0.900602363	0.084337568	0.750627919
74	14	0.918625534	0.115736108	0.552613519
74	14	0.898889444	0.128874459	0.583582539
74	14	0.918263025	0.125161351	0.721964593
74	14	0.899562862	0.111364595	0.750627919
74	14	0.917586033	0.142763135	0.552613519
74	14	0.897849943	0.155901486	0.583582539
74	14	0.917223524	0.152188378	0.721964593
74	14	0.898523361	0.138391622	0.750627919
74	14	0.916546532	0.169790162	0.552613519
74	14	0.896810442	0.182928514	0.583582539
74	14	0.916184023	0.179215405	0.721964593
74	14	0.89748386	0.165418649	0.750627919
74	14	0.915507031	0.196817189	0.552613519
74	14	0.895770941	0.209955541	0.583582539
74	14	0.915144522	0.206242432	0.721964593
74	14	0.896444359	0.192445676	0.750627919
74	14	0.91446753	0.223844216	0.552613519
74	14	0.89473144	0.236982568	0.583582539
74	14	0.914105021	0.233269459	0.721964593
74	14	0.895404858	0.219472703	0.750627919
74	14	0.913428029	0.250871243	0.552613519
74	14	0.893691939	0.264009595	0.583582539
74	14	0.91306552	0.260296486	0.721964593
74	14	0.894365357	0.24649973	0.750627919
74	14	0.912388528	0.27789827	0.552613519
74	14	0.892652438	0.291036622	0.583582539
74	14	0.912026019	0.287323514	0.721964593
74	14	0.893325856	0.273526757	0.750627919
74	14	0.911349027	0.304925297	0.552613519
74	14	0.891612937	0.318063649	0.583582539
74	14	0.910986518	0.314350541	0.721964593
74	14	0.892286354	0.300553784	0.750627919
74	14	0.910309526	0.331952324	0.552613519
74	14	0.890573436	0.345090676	0.583582539
74	14	0.909947017	0.341377568	0.721964593
74	14	0.891246853	0.327580811	0.750627919
74	14	0.909270025	0.358979351	0.552613519
74	14	0.889533935	0.372117703	0.583582539
74	14	0.908907516	0.368404595	0.721964593
74	14	0.890207352	0.354607838	0.750627919
74	14	0.908230524	0.386006378	0.552613519
74	14	0.888494433	0.39914473	0.583582539
74	14	0.907868015	0.395431622	0.721964593
74	14	0.889167851	0.381634865	0.750627919
74	14	0.907191023	0.413033405	0.552613519
74	14	0.887454932	0.426171757	0.583582539
74	14	0.906828514	0.422458649	0.721964593
74	14	0.88812835	0.408661892	0.750627919
74	14	0.906151522	0.440060432	0.552613519
74	14	0.886415431	0.453198784	0.583582539
74	14	0.905789012	0.449485676	0.721964593
74	14	0.887088849	0.435688919	0.750627919
74	14	0.905112021	0.467087459	0.552613519
74	14	0.88537593	0.480225811	0.583582539
74	14	0.904749511	0.476512703	0.721964593
74	14	0.886049348	0.462715946	0.750627919
74	14	0.90407252	0.494114486	0.552613519
74	14	0.884336429	0.507252838	0.583582539
74	14	0.90371001	0.50353973	0.721964593
74	14	0.885009847	0.489742973	0.750627919
74	14	0.903033019	0.521141514	0.552613519
74	14	0.883296928	0.534279865	0.583582539
74	14	0.902670509	0.530566757	0.721964593
74	14	0.883970346	0.51677	0.750627919
74	14	0.901993518	0.548168541	0.552613519
74	14	0.882257427	0.561306892	0.583582539
74	14	0.901631008	0.557593784	0.721964593
74	14	0.882930845	0.543797027	0.750627919
74	14	0.900954017	0.575195568	0.552613519
74	14	0.881217926	0.588333919	0.583582539
74	14	0.900591507	0.584620811	0.721964593
74	14	0.881891344	0.570824054	0.750627919
74	14	0.899914516	0.602222595	0.552613519
74	14	0.880178425	0.615360946	0.583582539
74	14	0.899552006	0.611647838	0.721964593
74	14	0.880851843	0.597851081	0.750627919
74	14	0.898875015	0.629249622	0.552613519
74	14	0.879138924	0.642387973	0.583582539
74	14	0.898512505	0.638674865	0.721964593
74	14	0.879812342	0.624878108	0.750627919
74	14	0.897835514	0.656276649	0.552613519
74	14	0.878099423	0.669415	0.583582539
74	14	0.897473004	0.665701892	0.721964593
74	14	0.878772841	0.651905135	0.750627919
74	14	0.896796012	0.683303676	0.552613519
74	14	0.877059922	0.696442027	0.583582539
74	14	0.896433503	0.692728919	0.721964593
74	14	0.87773334	0.678932162	0.750627919
74	14	0.895756511	0.710330703	0.552613519
74	14	0.876020421	0.723469054	0.583582539
74	14	0.895394002	0.719755946	0.721964593
74	14	0.876693839	0.705959189	0.750627919
74	14	0.89471701	0.73735773	0.552613519
74	14	0.87498092	0.750496081	0.583582539
74	14	0.894354501	0.746782973	0.721964593
74	14	0.875654338	0.732986216	0.750627919
74	14	0.893677509	0.764384757	0.552613519
74	14	0.873941419	0.777523108	0.583582539
74	14	0.893315	0.77381	0.721964593
74	14	0.874614837	0.760013243	0.750627919
74	14	0.892638008	0.791411784	0.552613519
74	14	0.872901918	0.804550135	0.583582539
74	14	0.892275499	0.800837027	0.721964593
74	14	0.873575336	0.78704027	0.750627919
74	14	0.891598507	0.818438811	0.552613519
74	14	0.871862417	0.831577162	0.583582539
74	14	0.891235998	0.827864054	0.721964593
74	14	0.872535835	0.814067297	0.750627919
74	14	0.890559006	0.845465838	0.552613519
74	14	0.870822916	0.858604189	0.583582539
74	14	0.890196497	0.854891081	0.721964593
74	14	0.871496334	0.841094324	0.750627919
74	14	0.889519505	0.872492865	0.552613519
74	14	0.869783415	0.885631216	0.583582539
74	14	0.889156996	0.881918108	0.721964593
74	14	0.870456833	0.868121351	0.750627919
74	14	0.888480004	0.899519892	0.552613519
74	14	0.868743914	0.912658243	0.583582539
74	14	0.888117495	0.908945135	0.721964593
74	14	0.869417332	0.895148378	0.750627919
74	14	0.887440503	0.926546919	0.552613519
74	14	0.867704413	0.93968527	0.583582539
74	14	0.887077994	0.935972162	0.721964593
74	14	0.868377831	0.922175405	0.750627919
74	14	0.886401002	0.953573946	0.552613519
74	14	0.866664912	0.966712297	0.583582539
74	14	0.886038493	0.962999189	0.721964593
74	14	0.86733833	0.949202432	0.750627919
74	14	0.885361501	0.980600973	0.552613519
74	14	0.865625411	0.993739324	0.583582539
74	14	0.884998992	0.990026216	0.721964593
74	14	0.866298828	0.976229459	0.750627919
74	14	0.884322	0.007628	0.552613519
74	14	0.86458591	0.020766351	0.583582539
74	14	0.883959491	0.017053243	0.721964593
74	14	0.865259327	0.003256486	0.750627919
74	14	0.883282499	0.034655027	0.552613519
74	14	0.863546409	0.047793378	0.583582539
74	14	0.88291999	0.04408027	0.721964593
74	14	0.864219826	0.030283514	0.750627919
74	14	0.882242998	0.061682054	0.552613519
74	14	0.862506907	0.074820405	0.583582539
74	14	0.881880489	0.071107297	0.721964593
74	14	0.863180325	0.057310541	0.750627919
74	14	0.881203497	0.088709081	0.552613519
74	14	0.861467406	0.101847432	0.583582539
74	14	0.880840988	0.098134324	0.721964593
74	14	0.862140824	0.084337568	0.750627919
74	14	0.880163996	0.115736108	0.552613519
74	14	0.860427905	0.128874459	0.583582539
74	14	0.879801486	0.125161351	0.721964593
74	14	0.861101323	0.111364595	0.750627919
74	14	0.879124495	0.142763135	0.552613519
74	14	0.859388404	0.155901486	0.583582539
74	14	0.878761985	0.152188378	0.721964593
74	14	0.860061822	0.138391622	0.750627919
74	14	0.878084994	0.169790162	0.552613519
74	14	0.858348903	0.182928514	0.583582539
74	14	0.877722484	0.179215405	0.721964593
74	14	0.859022321	0.165418649	0.750627919
74	14	0.877045493	0.196817189	0.552613519
74	14	0.857309402	0.209955541	0.583582539
74	14	0.876682983	0.206242432	0.721964593
74	14	0.85798282	0.192445676	0.750627919
74	14	0.876005992	0.223844216	0.552613519
74	14	0.856269901	0.236982568	0.583582539
74	14	0.875643482	0.233269459	0.721964593
74	14	0.856943319	0.219472703	0.750627919
74	14	0.874966491	0.250871243	0.552613519
74	14	0.8552304	0.264009595	0.583582539
74	14	0.874603981	0.260296486	0.721964593
74	14	0.855903818	0.24649973	0.750627919
74	14	0.87392699	0.27789827	0.552613519
74	14	0.854190899	0.291036622	0.583582539
74	14	0.87356448	0.287323514	0.721964593
74	14	0.854864317	0.273526757	0.750627919
74	14	0.872887489	0.304925297	0.552613519
74	14	0.853151398	0.318063649	0.583582539
74	14	0.872524979	0.314350541	0.721964593
74	14	0.853824816	0.300553784	0.750627919
74	14	0.871847988	0.331952324	0.552613519
74	14	0.852111897	0.345090676	0.583582539
74	14	0.871485478	0.341377568	0.721964593
74	14	0.852785315	0.327580811	0.750627919
74	14	0.870808486	0.358979351	0.552613519
74	14	0.851072396	0.372117703	0.583582539
74	14	0.870445977	0.368404595	0.721964593
74	14	0.851745814	0.354607838	0.750627919
74	14	0.869768985	0.386006378	0.552613519
74	14	0.850032895	0.39914473	0.583582539
74	14	0.869406476	0.395431622	0.721964593
74	14	0.850706313	0.381634865	0.750627919
74	14	0.868729484	0.413033405	0.552613519
74	14	0.848993394	0.426171757	0.583582539
74	14	0.868366975	0.422458649	0.721964593
74	14	0.849666812	0.408661892	0.750627919
74	14	0.867689983	0.440060432	0.552613519
74	14	0.847953893	0.453198784	0.583582539
74	14	0.867327474	0.449485676	0.721964593
74	14	0.848627311	0.435688919	0.750627919
74	14	0.866650482	0.467087459	0.552613519
74	14	0.846914392	0.480225811	0.583582539
74	14	0.866287973	0.476512703	0.721964593
74	14	0.84758781	0.462715946	0.750627919
74	14	0.865610981	0.494114486	0.552613519
74	14	0.845874891	0.507252838	0.583582539
74	14	0.865248472	0.50353973	0.721964593
74	14	0.846548309	0.489742973	0.750627919
74	14	0.86457148	0.521141514	0.552613519
74	14	0.84483539	0.534279865	0.583582539
74	14	0.864208971	0.530566757	0.721964593
74	14	0.845508808	0.51677	0.750627919
74	14	0.863531979	0.548168541	0.552613519
74	14	0.843795889	0.561306892	0.583582539
74	14	0.86316947	0.557593784	0.721964593
74	14	0.844469307	0.543797027	0.750627919
74	14	0.862492478	0.575195568	0.552613519
74	14	0.842756388	0.588333919	0.583582539
74	14	0.862129969	0.584620811	0.721964593
74	14	0.843429806	0.570824054	0.750627919
74	14	0.861452977	0.602222595	0.552613519
74	14	0.841716887	0.615360946	0.583582539
74	14	0.861090468	0.611647838	0.721964593
74	14	0.842390305	0.597851081	0.750627919
74	14	0.860413476	0.629249622	0.552613519
74	14	0.840677386	0.642387973	0.583582539
74	14	0.860050967	0.638674865	0.721964593
74	14	0.841350804	0.624878108	0.750627919
74	14	0.859373975	0.656276649	0.552613519
74	14	0.839637885	0.669415	0.583582539
74	14	0.859011466	0.665701892	0.721964593
74	14	0.840311302	0.651905135	0.750627919
74	14	0.858334474	0.683303676	0.552613519
74	14	0.838598384	0.696442027	0.583582539
74	14	0.857971965	0.692728919	0.721964593
74	14	0.839271801	0.678932162	0.750627919
74	14	0.857294973	0.710330703	0.552613519
74	14	0.837558883	0.723469054	0.583582539
74	14	0.856932464	0.719755946	0.721964593
74	14	0.8382323	0.705959189	0.750627919
74	14	0.856255472	0.73735773	0.552613519
74	14	0.836519381	0.750496081	0.583582539
74	14	0.855892963	0.746782973	0.721964593
74	14	0.837192799	0.732986216	0.750627919
74	14	0.855215971	0.764384757	0.552613519
74	14	0.83547988	0.777523108	0.583582539
74	14	0.854853462	0.77381	0.721964593
74	14	0.836153298	0.760013243	0.750627919
74	14	0.85417647	0.791411784	0.552613519
74	14	0.834440379	0.804550135	0.583582539
74	14	0.85381396	0.800837027	0.721964593
74	14	0.835113797	0.78704027	0.750627919
74	14	0.853136969	0.818438811	0.552613519
74	14	0.833400878	0.831577162	0.583582539
74	14	0.852774459	0.827864054	0.721964593
74	14	0.834074296	0.814067297	0.750627919
74	14	0.852097468	0.845465838	0.552613519
74	14	0.832361377	0.858604189	0.583582539
74	14	0.851734958	0.854891081	0.721964593
74	14	0.833034795	0.841094324	0.750627919
74	14	0.851057967	0.872492865	0.552613519
74	14	0.831321876	0.885631216	0.583582539
74	14	0.850695457	0.881918108	0.721964593
74	14	0.831995294	0.868121351	0.750627919
74	14	0.850018466	0.899519892	0.552613519
74	14	0.830282375	0.912658243	0.583582539
74	14	0.849655956	0.908945135	0.721964593
74	14	0.830955793	0.895148378	0.750627919
74	14	0.848978965	0.926546919	0.552613519
74	14	0.829242874	0.93968527	0.583582539
74	14	0.848616455	0.935972162	0.721964593
74	14	0.829916292	0.922175405	0.750627919
74	14	0.847939464	0.953573946	0.552613519
74	14	0.828203373	0.966712297	0.583582539
74	14	0.847576954	0.962999189	0.721964593
74	14	0.828876791	0.949202432	0.750627919
74	14	0.846899963	0.980600973	0.552613519
74	14	0.827163872	0.993739324	0.583582539
74	14	0.846537453	0.990026216	0.721964593
74	14	0.82783729	0.976229459	0.750627919
74	14	0.845860462	0.007628	0.552613519
74	14	0.826124371	0.020766351	0.583582539
74	14	0.845497952	0.017053243	0.721964593
74	14	0.826797789	0.003256486	0.750627919
74	14	0.84482096	0.034655027	0.552613519
74	14	0.82508487	0.047793378	0.583582539
74	14	0.844458451	0.04408027	0.721964593
74	14	0.825758288	0.030283514	0.750627919
74	14	0.843781459	0.061682054	0.552613519
74	14	0.824045369	0.074820405	0.583582539
74	14	0.84341895	0.071107297	0.721964593
74	14	0.824718787	0.057310541	0.750627919
74	14	0.842741958	0.088709081	0.552613519
74	14	0.823005868	0.101847432	0.583582539
74	14	0.842379449	0.098134324	0.721964593
74	14	0.823679286	0.084337568	0.750627919
74	14	0.841702457	0.115736108	0.552613519
74	14	0.821966367	0.128874459	0.583582539
74	14	0.841339948	0.125161351	0.721964593
74	14	0.822639785	0.111364595	0.750627919
74	14	0.840662956	0.142763135	0.552613519
74	14	0.820926866	0.155901486	0.583582539
74	14	0.840300447	0.152188378	0.721964593
74	14	0.821600284	0.138391622	0.750627919
74	14	0.839623455	0.169790162	0.552613519
74	14	0.819887365	0.182928514	0.583582539
74	14	0.839260946	0.179215405	0.721964593
74	14	0.820560783	0.165418649	0.750627919
74	14	0.838583954	0.196817189	0.552613519
74	14	0.818847864	0.209955541	0.583582539
74	14	0.838221445	0.206242432	0.721964593
74	14	0.819521282	0.192445676	0.750627919
74	14	0.837544453	0.223844216	0.552613519
74	14	0.817808363	0.236982568	0.583582539
74	14	0.837181944	0.233269459	0.721964593
74	14	0.818481781	0.219472703	0.750627919
74	14	0.836504952	0.250871243	0.552613519
74	14	0.816768862	0.264009595	0.583582539
74	14	0.836142443	0.260296486	0.721964593
74	14	0.81744228	0.24649973	0.750627919
74	14	0.835465451	0.27789827	0.552613519
74	14	0.815729361	0.291036622	0.583582539
74	14	0.835102942	0.287323514	0.721964593
74	14	0.816402779	0.273526757	0.750627919
74	14	0.83442595	0.304925297	0.552613519
74	14	0.81468986	0.318063649	0.583582539
74	14	0.834063441	0.314350541	0.721964593
74	14	0.815363278	0.300553784	0.750627919
74	14	0.833386449	0.331952324	0.552613519
74	14	0.813650359	0.345090676	0.583582539
74	14	0.83302394	0.341377568	0.721964593
74	14	0.814323777	0.327580811	0.750627919
74	14	0.832346948	0.358979351	0.552613519
74	14	0.812610858	0.372117703	0.583582539
74	14	0.831984439	0.368404595	0.721964593
74	14	0.813284275	0.354607838	0.750627919
74	14	0.831307447	0.386006378	0.552613519
74	14	0.811571357	0.39914473	0.583582539
74	14	0.830944938	0.395431622	0.721964593
74	14	0.812244774	0.381634865	0.750627919
74	14	0.830267946	0.413033405	0.552613519
74	14	0.810531856	0.426171757	0.583582539
74	14	0.829905437	0.422458649	0.721964593
74	14	0.811205273	0.408661892	0.750627919
74	14	0.829228445	0.440060432	0.552613519
74	14	0.809492354	0.453198784	0.583582539
74	14	0.828865936	0.449485676	0.721964593
74	14	0.810165772	0.435688919	0.750627919
74	14	0.828188944	0.467087459	0.552613519
74	14	0.808452853	0.480225811	0.583582539
74	14	0.827826435	0.476512703	0.721964593
74	14	0.809126271	0.462715946	0.750627919
74	14	0.827149443	0.494114486	0.552613519
74	14	0.807413352	0.507252838	0.583582539
74	14	0.826786933	0.50353973	0.721964593
74	14	0.80808677	0.489742973	0.750627919
74	14	0.826109942	0.521141514	0.552613519
74	14	0.806373851	0.534279865	0.583582539
74	14	0.825747432	0.530566757	0.721964593
74	14	0.807047269	0.51677	0.750627919
74	14	0.825070441	0.548168541	0.552613519
74	14	0.80533435	0.561306892	0.583582539
74	14	0.824707931	0.557593784	0.721964593
74	14	0.806007768	0.543797027	0.750627919
74	14	0.82403094	0.575195568	0.552613519
74	14	0.804294849	0.588333919	0.583582539
74	14	0.82366843	0.584620811	0.721964593
74	14	0.804968267	0.570824054	0.750627919
74	14	0.822991439	0.602222595	0.552613519
74	14	0.803255348	0.615360946	0.583582539
74	14	0.822628929	0.611647838	0.721964593
74	14	0.803928766	0.597851081	0.750627919
74	14	0.821951938	0.629249622	0.552613519
74	14	0.802215847	0.642387973	0.583582539
74	14	0.821589428	0.638674865	0.721964593
74	14	0.802889265	0.624878108	0.750627919
74	14	0.820912437	0.656276649	0.552613519
74	14	0.801176346	0.669415	0.583582539
74	14	0.820549927	0.665701892	0.721964593
74	14	0.801849764	0.651905135	0.750627919
74	14	0.819872936	0.683303676	0.552613519
74	14	0.800136845	0.696442027	0.583582539
74	14	0.819510426	0.692728919	0.721964593
74	14	0.800810263	0.678932162	0.750627919
74	14	0.818833435	0.710330703	0.552613519
74	14	0.799097344	0.723469054	0.583582539
74	14	0.818470925	0.719755946	0.721964593
74	14	0.799770762	0.705959189	0.750627919
74	14	0.817793933	0.73735773	0.552613519
74	14	0.798057843	0.750496081	0.583582539
74	14	0.817431424	0.746782973	0.721964593
74	14	0.798731261	0.732986216	0.750627919
74	14	0.816754432	0.764384757	0.552613519
74	14	0.797018342	0.777523108	0.583582539
74	14	0.816391923	0.77381	0.721964593
74	14	0.79769176	0.760013243	0.750627919
74	14	0.815714931	0.791411784	0.552613519
74	14	0.795978841	0.804550135	0.583582539
74	14	0.815352422	0.800837027	0.721964593
74	14	0.796652259	0.78704027	0.750627919
74	14	0.81467543	0.818438811	0.552613519
74	14	0.79493934	0.831577162	0.583582539
74	14	0.814312921	0.827864054	0.721964593
74	14	0.795612758	0.814067297	0.750627919
74	14	0.813635929	0.845465838	0.552613519
74	14	0.793899839	0.858604189	0.583582539
74	14	0.81327342	0.854891081	0.721964593
74	14	0.794573257	0.841094324	0.750627919
74	14	0.812596428	0.872492865	0.552613519
74	14	0.792860338	0.885631216	0.583582539
74	14	0.812233919	0.881918108	0.721964593
74	14	0.793533756	0.868121351	0.750627919
74	14	0.811556927	0.899519892	0.552613519
74	14	0.791820837	0.912658243	0.583582539
74	14	0.811194418	0.908945135	0.721964593
74	14	0.792494255	0.895148378	0.750627919
74	14	0.810517426	0.926546919	0.552613519
74	14	0.790781336	0.93968527	0.583582539
74	14	0.810154917	0.935972162	0.721964593
74	14	0.791454754	0.922175405	0.750627919
74	14	0.809477925	0.953573946	0.552613519
74	14	0.789741835	0.966712297	0.583582539
74	14	0.809115416	0.962999189	0.721964593
74	14	0.790415253	0.949202432	0.750627919
74	14	0.808438424	0.980600973	0.552613519
74	14	0.788702334	0.993739324	0.583582539
74	14	0.808075915	0.990026216	0.721964593
74	14	0.789375752	0.976229459	0.750627919
74	14	0.807398923	0.007628	0.552613519
74	14	0.787662833	0.020766351	0.583582539
74	14	0.807036414	0.017053243	0.721964593
74	14	0.788336251	0.003256486	0.750627919
74	14	0.806359422	0.034655027	0.552613519
74	14	0.786623332	0.047793378	0.583582539
74	14	0.805996913	0.04408027	0.721964593
74	14	0.787296749	0.030283514	0.750627919
74	14	0.805319921	0.061682054	0.552613519
74	14	0.785583831	0.074820405	0.583582539
74	14	0.804957412	0.071107297	0.721964593
74	14	0.786257248	0.057310541	0.750627919
74	14	0.80428042	0.088709081	0.552613519
74	14	0.78454433	0.101847432	0.583582539
74	14	0.803917911	0.098134324	0.721964593
74	14	0.785217747	0.084337568	0.750627919
74	14	0.803240919	0.115736108	0.552613519
74	14	0.783504828	0.128874459	0.583582539
74	14	0.80287841	0.125161351	0.721964593
74	14	0.784178246	0.111364595	0.750627919
74	14	0.802201418	0.142763135	0.552613519
74	14	0.782465327	0.155901486	0.583582539
74	14	0.801838909	0.152188378	0.721964593
74	14	0.783138745	0.138391622	0.750627919
74	14	0.801161917	0.169790162	0.552613519
74	14	0.781425826	0.182928514	0.583582539
74	14	0.800799407	0.179215405	0.721964593
74	14	0.782099244	0.165418649	0.750627919
74	14	0.800122416	0.196817189	0.552613519
74	14	0.780386325	0.209955541	0.583582539
74	14	0.799759906	0.206242432	0.721964593
74	14	0.781059743	0.192445676	0.750627919
74	14	0.799082915	0.223844216	0.552613519
74	14	0.779346824	0.236982568	0.583582539
74	14	0.798720405	0.233269459	0.721964593
74	14	0.780020242	0.219472703	0.750627919
74	14	0.798043414	0.250871243	0.552613519
74	14	0.778307323	0.264009595	0.583582539
74	14	0.797680904	0.260296486	0.721964593
74	14	0.778980741	0.24649973	0.750627919
74	14	0.797003913	0.27789827	0.552613519
74	14	0.777267822	0.291036622	0.583582539
74	14	0.796641403	0.287323514	0.721964593
74	14	0.77794124	0.273526757	0.750627919
74	14	0.795964412	0.304925297	0.552613519
74	14	0.776228321	0.318063649	0.583582539
74	14	0.795601902	0.314350541	0.721964593
74	14	0.776901739	0.300553784	0.750627919
74	14	0.794924911	0.331952324	0.552613519
74	14	0.77518882	0.345090676	0.583582539
74	14	0.794562401	0.341377568	0.721964593
74	14	0.775862238	0.327580811	0.750627919
74	14	0.79388541	0.358979351	0.552613519
74	14	0.774149319	0.372117703	0.583582539
74	14	0.7935229	0.368404595	0.721964593
74	14	0.774822737	0.354607838	0.750627919
74	14	0.792845909	0.386006378	0.552613519
74	14	0.773109818	0.39914473	0.583582539
74	14	0.792483399	0.395431622	0.721964593
74	14	0.773783236	0.381634865	0.750627919
74	14	0.791806407	0.413033405	0.552613519
74	14	0.772070317	0.426171757	0.583582539
74	14	0.791443898	0.422458649	0.721964593
74	14	0.772743735	0.408661892	0.750627919
74	14	0.790766906	0.440060432	0.552613519
74	14	0.771030816	0.453198784	0.583582539
74	14	0.790404397	0.449485676	0.721964593
74	14	0.771704234	0.435688919	0.750627919
74	14	0.789727405	0.467087459	0.552613519
74	14	0.769991315	0.480225811	0.583582539
74	14	0.789364896	0.476512703	0.721964593
74	14	0.770664733	0.462715946	0.750627919
74	14	0.788687904	0.494114486	0.552613519
74	14	0.768951814	0.507252838	0.583582539
74	14	0.788325395	0.50353973	0.721964593
74	14	0.769625232	0.489742973	0.750627919
74	14	0.787648403	0.521141514	0.552613519
74	14	0.767912313	0.534279865	0.583582539
74	14	0.787285894	0.530566757	0.721964593
74	14	0.768585731	0.51677	0.750627919
74	14	0.786608902	0.548168541	0.552613519
74	14	0.766872812	0.561306892	0.583582539
74	14	0.786246393	0.557593784	0.721964593
74	14	0.76754623	0.543797027	0.750627919
74	14	0.785569401	0.575195568	0.552613519
74	14	0.765833311	0.588333919	0.583582539
74	14	0.785206892	0.584620811	0.721964593
74	14	0.766506729	0.570824054	0.750627919
74	14	0.7845299	0.602222595	0.552613519
74	14	0.76479381	0.615360946	0.583582539
74	14	0.784167391	0.611647838	0.721964593
74	14	0.765467228	0.597851081	0.750627919
74	14	0.783490399	0.629249622	0.552613519
74	14	0.763754309	0.642387973	0.583582539
74	14	0.78312789	0.638674865	0.721964593
74	14	0.764427727	0.624878108	0.750627919
74	14	0.782450898	0.656276649	0.552613519
74	14	0.762714808	0.669415	0.583582539
74	14	0.782088389	0.665701892	0.721964593
74	14	0.763388226	0.651905135	0.750627919
74	14	0.781411397	0.683303676	0.552613519
74	14	0.761675307	0.696442027	0.583582539
74	14	0.781048888	0.692728919	0.721964593
74	14	0.762348725	0.678932162	0.750627919
74	14	0.780371896	0.710330703	0.552613519
74	14	0.760635806	0.723469054	0.583582539
74	14	0.780009387	0.719755946	0.721964593
74	14	0.761309223	0.705959189	0.750627919
74	14	0.779332395	0.73735773	0.552613519
74	14	0.759596305	0.750496081	0.583582539
74	14	0.778969886	0.746782973	0.721964593
74	14	0.760269722	0.732986216	0.750627919
74	14	0.778292894	0.764384757	0.552613519
74	14	0.758556804	0.777523108	0.583582539
74	14	0.777930385	0.77381	0.721964593
74	14	0.759230221	0.760013243	0.750627919
74	14	0.777253393	0.791411784	0.552613519
74	14	0.757517302	0.804550135	0.583582539
74	14	0.776890884	0.800837027	0.721964593
74	14	0.75819072	0.78704027	0.750627919
74	14	0.776213892	0.818438811	0.552613519
74	14	0.756477801	0.831577162	0.583582539
74	14	0.775851383	0.827864054	0.721964593
74	14	0.757151219	0.814067297	0.750627919
74	14	0.775174391	0.845465838	0.552613519
74	14	0.7554383	0.858604189	0.583582539
74	14	0.774811881	0.854891081	0.721964593
74	14	0.756111718	0.841094324	0.750627919
74	14	0.77413489	0.872492865	0.552613519
74	14	0.754398799	0.885631216	0.583582539
74	14	0.77377238	0.881918108	0.721964593
74	14	0.755072217	0.868121351	0.750627919
74	14	0.773095389	0.899519892	0.552613519
74	14	0.753359298	0.912658243	0.583582539
74	14	0.772732879	0.908945135	0.721964593
74	14	0.754032716	0.895148378	0.750627919
74	14	0.772055888	0.926546919	0.552613519
74	14	0.752319797	0.93968527	0.583582539
74	14	0.771693378	0.935972162	0.721964593
74	14	0.752993215	0.922175405	0.750627919
74	14	0.771016387	0.953573946	0.552613519
74	14	0.751280296	0.966712297	0.583582539
74	14	0.770653877	0.962999189	0.721964593
74	14	0.751953714	0.949202432	0.750627919
74	14	0.769976886	0.980600973	0.552613519
74	14	0.750240795	0.993739324	0.583582539
74	14	0.769614376	0.990026216	0.721964593
74	14	0.750914213	0.976229459	0.750627919
74	14	0.768937385	0.007628	0.552613519
74	14	0.749201294	0.020766351	0.583582539
74	14	0.768574875	0.017053243	0.721964593
74	14	0.749874712	0.003256486	0.750627919
74	14	0.767897884	0.034655027	0.552613519
74	14	0.748161793	0.047793378	0.583582539
74	14	0.767535374	0.04408027	0.721964593
74	14	0.748835211	0.030283514	0.750627919
74	14	0.766858383	0.061682054	0.552613519
74	14	0.747122292	0.074820405	0.583582539
74	14	0.766495873	0.071107297	0.721964593
74	14	0.74779571	0.057310541	0.750627919
74	14	0.765818881	0.088709081	0.552613519
74	14	0.746082791	0.101847432	0.583582539
74	14	0.765456372	0.098134324	0.721964593
74	14	0.746756209	0.084337568	0.750627919
74	14	0.76477938	0.115736108	0.552613519
74	14	0.74504329	0.128874459	0.583582539
74	14	0.764416871	0.125161351	0.721964593
74	14	0.745716708	0.111364595	0.750627919
74	14	0.763739879	0.142763135	0.552613519
74	14	0.744003789	0.155901486	0.583582539
74	14	0.76337737	0.152188378	0.721964593
74	14	0.744677207	0.138391622	0.750627919
74	14	0.762700378	0.169790162	0.552613519
74	14	0.742964288	0.182928514	0.583582539
74	14	0.762337869	0.179215405	0.721964593
74	14	0.743637706	0.165418649	0.750627919
74	14	0.761660877	0.196817189	0.552613519
74	14	0.741924787	0.209955541	0.583582539
74	14	0.761298368	0.206242432	0.721964593
74	14	0.742598205	0.192445676	0.750627919
74	14	0.760621376	0.223844216	0.552613519
74	14	0.740885286	0.236982568	0.583582539
74	14	0.760258867	0.233269459	0.721964593
74	14	0.741558704	0.219472703	0.750627919
74	14	0.759581875	0.250871243	0.552613519
74	14	0.739845785	0.264009595	0.583582539
74	14	0.759219366	0.260296486	0.721964593
74	14	0.740519203	0.24649973	0.750627919
74	14	0.758542374	0.27789827	0.552613519
74	14	0.738806284	0.291036622	0.583582539
74	14	0.758179865	0.287323514	0.721964593
74	14	0.739479702	0.273526757	0.750627919
74	14	0.757502873	0.304925297	0.552613519
74	14	0.737766783	0.318063649	0.583582539
74	14	0.757140364	0.314350541	0.721964593
74	14	0.738440201	0.300553784	0.750627919
74	14	0.756463372	0.331952324	0.552613519
74	14	0.736727282	0.345090676	0.583582539
74	14	0.756100863	0.341377568	0.721964593
74	14	0.7374007	0.327580811	0.750627919
74	14	0.755423871	0.358979351	0.552613519
74	14	0.735687781	0.372117703	0.583582539
74	14	0.755061362	0.368404595	0.721964593
74	14	0.736361199	0.354607838	0.750627919
74	14	0.75438437	0.386006378	0.552613519
74	14	0.73464828	0.39914473	0.583582539
74	14	0.754021861	0.395431622	0.721964593
74	14	0.735321698	0.381634865	0.750627919
74	14	0.753344869	0.413033405	0.552613519
74	14	0.733608779	0.426171757	0.583582539
74	14	0.75298236	0.422458649	0.721964593
74	14	0.734282196	0.408661892	0.750627919
74	14	0.752305368	0.440060432	0.552613519
74	14	0.732569278	0.453198784	0.583582539
74	14	0.751942859	0.449485676	0.721964593
74	14	0.733242695	0.435688919	0.750627919
74	14	0.751265867	0.467087459	0.552613519
74	14	0.731529777	0.480225811	0.583582539
74	14	0.750903358	0.476512703	0.721964593
74	14	0.732203194	0.462715946	0.750627919
74	14	0.750226366	0.494114486	0.552613519
74	14	0.730490275	0.507252838	0.583582539
74	14	0.749863857	0.50353973	0.721964593
74	14	0.731163693	0.489742973	0.750627919
74	14	0.749186865	0.521141514	0.552613519
74	14	0.729450774	0.534279865	0.583582539
74	14	0.748824356	0.530566757	0.721964593
74	14	0.730124192	0.51677	0.750627919
74	14	0.748147364	0.548168541	0.552613519
74	14	0.728411273	0.561306892	0.583582539
74	14	0.747784854	0.557593784	0.721964593
74	14	0.729084691	0.543797027	0.750627919
74	14	0.747107863	0.575195568	0.552613519
74	14	0.727371772	0.588333919	0.583582539
74	14	0.746745353	0.584620811	0.721964593
74	14	0.72804519	0.570824054	0.750627919
74	14	0.746068362	0.602222595	0.552613519
74	14	0.726332271	0.615360946	0.583582539
74	14	0.745705852	0.611647838	0.721964593
74	14	0.727005689	0.597851081	0.750627919
74	14	0.745028861	0.629249622	0.552613519
74	14	0.72529277	0.642387973	0.583582539
74	14	0.744666351	0.638674865	0.721964593
74	14	0.725966188	0.624878108	0.750627919
74	14	0.74398936	0.656276649	0.552613519
74	14	0.724253269	0.669415	0.583582539
74	14	0.74362685	0.665701892	0.721964593
74	14	0.724926687	0.651905135	0.750627919
74	14	0.742949859	0.683303676	0.552613519
74	14	0.723213768	0.696442027	0.583582539
74	14	0.742587349	0.692728919	0.721964593
74	14	0.723887186	0.678932162	0.750627919
74	14	0.741910358	0.710330703	0.552613519
74	14	0.722174267	0.723469054	0.583582539
74	14	0.741547848	0.719755946	0.721964593
74	14	0.722847685	0.705959189	0.750627919
74	14	0.740870857	0.73735773	0.552613519
74	14	0.721134766	0.750496081	0.583582539
74	14	0.740508347	0.746782973	0.721964593
74	14	0.721808184	0.732986216	0.750627919
74	14	0.739831356	0.764384757	0.552613519
74	14	0.720095265	0.777523108	0.583582539
74	14	0.739468846	0.77381	0.721964593
74	14	0.720768683	0.760013243	0.750627919
74	14	0.738791854	0.791411784	0.552613519
74	14	0.719055764	0.804550135	0.583582539
74	14	0.738429345	0.800837027	0.721964593
74	14	0.719729182	0.78704027	0.750627919
74	14	0.737752353	0.818438811	0.552613519
74	14	0.718016263	0.831577162	0.583582539
74	14	0.737389844	0.827864054	0.721964593
74	14	0.718689681	0.814067297	0.750627919
74	14	0.736712852	0.845465838	0.552613519
74	14	0.716976762	0.858604189	0.583582539
74	14	0.736350343	0.854891081	0.721964593
74	14	0.71765018	0.841094324	0.750627919
74	14	0.735673351	0.872492865	0.552613519
74	14	0.715937261	0.885631216	0.583582539
74	14	0.735310842	0.881918108	0.721964593
74	14	0.716610679	0.868121351	0.750627919
74	14	0.73463385	0.899519892	0.552613519
74	14	0.71489776	0.912658243	0.583582539
74	14	0.734271341	0.908945135	0.721964593
74	14	0.715571178	0.895148378	0.750627919
74	14	0.733594349	0.926546919	0.552613519
74	14	0.713858259	0.93968527	0.583582539
74	14	0.73323184	0.935972162	0.721964593
74	14	0.714531677	0.922175405	0.750627919
74	14	0.732554848	0.953573946	0.552613519
74	14	0.712818758	0.966712297	0.583582539
74	14	0.732192339	0.962999189	0.721964593
74	14	0.713492176	0.949202432	0.750627919
74	14	0.731515347	0.980600973	0.552613519
74	14	0.711779257	0.993739324	0.583582539
74	14	0.731152838	0.990026216	0.721964593
74	14	0.712452675	0.976229459	0.750627919
74	14	0.730475846	0.007628	0.552613519
74	14	0.710739756	0.020766351	0.583582539
74	14	0.730113337	0.017053243	0.721964593
74	14	0.711413174	0.003256486	0.750627919
74	14	0.729436345	0.034655027	0.552613519
74	14	0.709700255	0.047793378	0.583582539
74	14	0.729073836	0.04408027	0.721964593
74	14	0.710373673	0.030283514	0.750627919
74	14	0.728396844	0.061682054	0.552613519
74	14	0.708660754	0.074820405	0.583582539
74	14	0.728034335	0.071107297	0.721964593
74	14	0.709334172	0.057310541	0.750627919
74	14	0.727357343	0.088709081	0.552613519
74	14	0.707621253	0.101847432	0.583582539
74	14	0.726994834	0.098134324	0.721964593
74	14	0.70829467	0.084337568	0.750627919
74	14	0.726317842	0.115736108	0.552613519
74	14	0.706581752	0.128874459	0.583582539
74	14	0.725955333	0.125161351	0.721964593
74	14	0.707255169	0.111364595	0.750627919
74	14	0.725278341	0.142763135	0.552613519
74	14	0.705542251	0.155901486	0.583582539
74	14	0.724915832	0.152188378	0.721964593
74	14	0.706215668	0.138391622	0.750627919
74	14	0.72423884	0.169790162	0.552613519
74	14	0.704502749	0.182928514	0.583582539
74	14	0.723876331	0.179215405	0.721964593
74	14	0.705176167	0.165418649	0.750627919
74	14	0.723199339	0.196817189	0.552613519
74	14	0.703463248	0.209955541	0.583582539
74	14	0.72283683	0.206242432	0.721964593
74	14	0.704136666	0.192445676	0.750627919
74	14	0.722159838	0.223844216	0.552613519
74	14	0.702423747	0.236982568	0.583582539
74	14	0.721797328	0.233269459	0.721964593
74	14	0.703097165	0.219472703	0.750627919
74	14	0.721120337	0.250871243	0.552613519
74	14	0.701384246	0.264009595	0.583582539
74	14	0.720757827	0.260296486	0.721964593
74	14	0.702057664	0.24649973	0.750627919
74	14	0.720080836	0.27789827	0.552613519
74	14	0.700344745	0.291036622	0.583582539
74	14	0.719718326	0.287323514	0.721964593
74	14	0.701018163	0.273526757	0.750627919
74	14	0.719041335	0.304925297	0.552613519
74	14	0.699305244	0.318063649	0.583582539
74	14	0.718678825	0.314350541	0.721964593
74	14	0.699978662	0.300553784	0.750627919
74	14	0.718001834	0.331952324	0.552613519
74	14	0.698265743	0.345090676	0.583582539
74	14	0.717639324	0.341377568	0.721964593
74	14	0.698939161	0.327580811	0.750627919
74	14	0.716962333	0.358979351	0.552613519
74	14	0.697226242	0.372117703	0.583582539
74	14	0.716599823	0.368404595	0.721964593
74	14	0.69789966	0.354607838	0.750627919
74	14	0.715922832	0.386006378	0.552613519
74	14	0.696186741	0.39914473	0.583582539
74	14	0.715560322	0.395431622	0.721964593
74	14	0.696860159	0.381634865	0.750627919
74	14	0.714883331	0.413033405	0.552613519
74	14	0.69514724	0.426171757	0.583582539
74	14	0.714520821	0.422458649	0.721964593
74	14	0.695820658	0.408661892	0.750627919
74	14	0.71384383	0.440060432	0.552613519
74	14	0.694107739	0.453198784	0.583582539
74	14	0.71348132	0.449485676	0.721964593
74	14	0.694781157	0.435688919	0.750627919
74	14	0.712804328	0.467087459	0.552613519
74	14	0.693068238	0.480225811	0.583582539
74	14	0.712441819	0.476512703	0.721964593
74	14	0.693741656	0.462715946	0.750627919
74	14	0.711764827	0.494114486	0.552613519
74	14	0.692028737	0.507252838	0.583582539
74	14	0.711402318	0.50353973	0.721964593
74	14	0.692702155	0.489742973	0.750627919
74	14	0.710725326	0.521141514	0.552613519
74	14	0.690989236	0.534279865	0.583582539
74	14	0.710362817	0.530566757	0.721964593
74	14	0.691662654	0.51677	0.750627919
74	14	0.709685825	0.548168541	0.552613519
74	14	0.689949735	0.561306892	0.583582539
74	14	0.709323316	0.557593784	0.721964593
74	14	0.690623153	0.543797027	0.750627919
74	14	0.708646324	0.575195568	0.552613519
74	14	0.688910234	0.588333919	0.583582539
74	14	0.708283815	0.584620811	0.721964593
74	14	0.689583652	0.570824054	0.750627919
74	14	0.707606823	0.602222595	0.552613519
74	14	0.687870733	0.615360946	0.583582539
74	14	0.707244314	0.611647838	0.721964593
74	14	0.688544151	0.597851081	0.750627919
74	14	0.706567322	0.629249622	0.552613519
74	14	0.686831232	0.642387973	0.583582539
74	14	0.706204813	0.638674865	0.721964593
74	14	0.68750465	0.624878108	0.750627919
74	14	0.705527821	0.656276649	0.552613519
74	14	0.685791731	0.669415	0.583582539
74	14	0.705165312	0.665701892	0.721964593
74	14	0.686465149	0.651905135	0.750627919
74	14	0.70448832	0.683303676	0.552613519
74	14	0.68475223	0.696442027	0.583582539
74	14	0.704125811	0.692728919	0.721964593
74	14	0.685425648	0.678932162	0.750627919
74	14	0.703448819	0.710330703	0.552613519
74	14	0.683712729	0.723469054	0.583582539
74	14	0.70308631	0.719755946	0.721964593
74	14	0.684386147	0.705959189	0.750627919
74	14	0.702409318	0.73735773	0.552613519
74	14	0.682673228	0.750496081	0.583582539
74	14	0.702046809	0.746782973	0.721964593
74	14	0.683346646	0.732986216	0.750627919
74	14	0.701369817	0.764384757	0.552613519
74	14	0.681633727	0.777523108	0.583582539
74	14	0.701007308	0.77381	0.721964593
74	14	0.682307144	0.760013243	0.750627919
74	14	0.700330316	0.791411784	0.552613519
74	14	0.680594226	0.804550135	0.583582539
74	14	0.699967807	0.800837027	0.721964593
74	14	0.681267643	0.78704027	0.750627919
74	14	0.699290815	0.818438811	0.552613519
74	14	0.679554725	0.831577162	0.583582539
74	14	0.698928306	0.827864054	0.721964593
74	14	0.680228142	0.814067297	0.750627919
74	14	0.698251314	0.845465838	0.552613519
74	14	0.678515223	0.858604189	0.583582539
74	14	0.697888805	0.854891081	0.721964593
74	14	0.679188641	0.841094324	0.750627919
74	14	0.697211813	0.872492865	0.552613519
74	14	0.677475722	0.885631216	0.583582539
74	14	0.696849304	0.881918108	0.721964593
74	14	0.67814914	0.868121351	0.750627919
74	14	0.696172312	0.899519892	0.552613519
74	14	0.676436221	0.912658243	0.583582539
74	14	0.695809802	0.908945135	0.721964593
74	14	0.677109639	0.895148378	0.750627919
74	14	0.695132811	0.926546919	0.552613519
74	14	0.67539672	0.93968527	0.583582539
74	14	0.694770301	0.935972162	0.721964593
74	14	0.676070138	0.922175405	0.750627919
74	14	0.69409331	0.953573946	0.552613519
74	14	0.674357219	0.966712297	0.583582539
74	14	0.6937308	0.962999189	0.721964593
74	14	0.675030637	0.949202432	0.750627919
74	14	0.693053809	0.980600973	0.552613519
74	14	0.673317718	0.993739324	0.583582539
74	14	0.692691299	0.990026216	0.721964593
74	14	0.673991136	0.976229459	0.750627919
74	14	0.692014308	0.007628	0.552613519
74	14	0.672278217	0.020766351	0.583582539
74	14	0.691651798	0.017053243	0.721964593
74	14	0.672951635	0.003256486	0.750627919
74	14	0.690974807	0.034655027	0.552613519
74	14	0.671238716	0.047793378	0.583582539
74	14	0.690612297	0.04408027	0.721964593
74	14	0.671912134	0.030283514	0.750627919
74	14	0.689935306	0.061682054	0.552613519
74	14	0.670199215	0.074820405	0.583582539
74	14	0.689572796	0.071107297	0.721964593
74	14	0.670872633	0.057310541	0.750627919
74	14	0.688895805	0.088709081	0.552613519
74	14	0.669159714	0.101847432	0.583582539
74	14	0.688533295	0.098134324	0.721964593
74	14	0.669833132	0.084337568	0.750627919
74	14	0.687856304	0.115736108	0.552613519
74	14	0.668120213	0.128874459	0.583582539
74	14	0.687493794	0.125161351	0.721964593
74	14	0.668793631	0.111364595	0.750627919
74	14	0.686816802	0.142763135	0.552613519
74	14	0.667080712	0.155901486	0.583582539
74	14	0.686454293	0.152188378	0.721964593
74	14	0.66775413	0.138391622	0.750627919
74	14	0.685777301	0.169790162	0.552613519
74	14	0.666041211	0.182928514	0.583582539
74	14	0.685414792	0.179215405	0.721964593
74	14	0.666714629	0.165418649	0.750627919
74	14	0.6847378	0.196817189	0.552613519
74	14	0.66500171	0.209955541	0.583582539
74	14	0.684375291	0.206242432	0.721964593
74	14	0.665675128	0.192445676	0.750627919
74	14	0.683698299	0.223844216	0.552613519
74	14	0.663962209	0.236982568	0.583582539
74	14	0.68333579	0.233269459	0.721964593
74	14	0.664635627	0.219472703	0.750627919
74	14	0.682658798	0.250871243	0.552613519
74	14	0.662922708	0.264009595	0.583582539
74	14	0.682296289	0.260296486	0.721964593
74	14	0.663596126	0.24649973	0.750627919
74	14	0.681619297	0.27789827	0.552613519
74	14	0.661883207	0.291036622	0.583582539
74	14	0.681256788	0.287323514	0.721964593
74	14	0.662556625	0.273526757	0.750627919
74	14	0.680579796	0.304925297	0.552613519
74	14	0.660843706	0.318063649	0.583582539
74	14	0.680217287	0.314350541	0.721964593
74	14	0.661517124	0.300553784	0.750627919
74	14	0.679540295	0.331952324	0.552613519
74	14	0.659804205	0.345090676	0.583582539
74	14	0.679177786	0.341377568	0.721964593
74	14	0.660477623	0.327580811	0.750627919
74	14	0.678500794	0.358979351	0.552613519
74	14	0.658764704	0.372117703	0.583582539
74	14	0.678138285	0.368404595	0.721964593
74	14	0.659438122	0.354607838	0.750627919
74	14	0.677461293	0.386006378	0.552613519
74	14	0.657725203	0.39914473	0.583582539
74	14	0.677098784	0.395431622	0.721964593
74	14	0.658398621	0.381634865	0.750627919
74	14	0.676421792	0.413033405	0.552613519
74	14	0.656685702	0.426171757	0.583582539
74	14	0.676059283	0.422458649	0.721964593
74	14	0.65735912	0.408661892	0.750627919
74	14	0.675382291	0.440060432	0.552613519
74	14	0.655646201	0.453198784	0.583582539
74	14	0.675019782	0.449485676	0.721964593
74	14	0.656319619	0.435688919	0.750627919
74	14	0.67434279	0.467087459	0.552613519
74	14	0.6546067	0.480225811	0.583582539
74	14	0.673980281	0.476512703	0.721964593
74	14	0.655280117	0.462715946	0.750627919
74	14	0.673303289	0.494114486	0.552613519
74	14	0.653567199	0.507252838	0.583582539
74	14	0.67294078	0.50353973	0.721964593
74	14	0.654240616	0.489742973	0.750627919
74	14	0.672263788	0.521141514	0.552613519
74	14	0.652527698	0.534279865	0.583582539
74	14	0.671901279	0.530566757	0.721964593
74	14	0.653201115	0.51677	0.750627919
74	14	0.671224287	0.548168541	0.552613519
74	14	0.651488196	0.561306892	0.583582539
74	14	0.670861778	0.557593784	0.721964593
74	14	0.652161614	0.543797027	0.750627919
74	14	0.670184786	0.575195568	0.552613519
74	14	0.650448695	0.588333919	0.583582539
74	14	0.669822277	0.584620811	0.721964593
74	14	0.651122113	0.570824054	0.750627919
74	14	0.669145285	0.602222595	0.552613519
74	14	0.649409194	0.615360946	0.583582539
74	14	0.668782775	0.611647838	0.721964593
74	14	0.650082612	0.597851081	0.750627919
74	14	0.668105784	0.629249622	0.552613519
74	14	0.648369693	0.642387973	0.583582539
74	14	0.667743274	0.638674865	0.721964593
74	14	0.649043111	0.624878108	0.750627919
74	14	0.667066283	0.656276649	0.552613519
74	14	0.647330192	0.669415	0.583582539
74	14	0.666703773	0.665701892	0.721964593
74	14	0.64800361	0.651905135	0.750627919
74	14	0.666026782	0.683303676	0.552613519
74	14	0.646290691	0.696442027	0.583582539
74	14	0.665664272	0.692728919	0.721964593
74	14	0.646964109	0.678932162	0.750627919
74	14	0.664987281	0.710330703	0.552613519
74	14	0.64525119	0.723469054	0.583582539
74	14	0.664624771	0.719755946	0.721964593
74	14	0.645924608	0.705959189	0.750627919
74	14	0.66394778	0.73735773	0.552613519
74	14	0.644211689	0.750496081	0.583582539
74	14	0.66358527	0.746782973	0.721964593
74	14	0.644885107	0.732986216	0.750627919
74	14	0.662908279	0.764384757	0.552613519
74	14	0.643172188	0.777523108	0.583582539
74	14	0.662545769	0.77381	0.721964593
74	14	0.643845606	0.760013243	0.750627919
74	14	0.661868778	0.791411784	0.552613519
74	14	0.642132687	0.804550135	0.583582539
74	14	0.661506268	0.800837027	0.721964593
74	14	0.642806105	0.78704027	0.750627919
74	14	0.660829277	0.818438811	0.552613519
74	14	0.641093186	0.831577162	0.583582539
74	14	0.660466767	0.827864054	0.721964593
74	14	0.641766604	0.814067297	0.750627919
74	14	0.659789775	0.845465838	0.552613519
74	14	0.640053685	0.858604189	0.583582539
74	14	0.659427266	0.854891081	0.721964593
74	14	0.640727103	0.841094324	0.750627919
74	14	0.658750274	0.872492865	0.552613519
74	14	0.639014184	0.885631216	0.583582539
74	14	0.658387765	0.881918108	0.721964593
74	14	0.639687602	0.868121351	0.750627919
74	14	0.657710773	0.899519892	0.552613519
74	14	0.637974683	0.912658243	0.583582539
74	14	0.657348264	0.908945135	0.721964593
74	14	0.638648101	0.895148378	0.750627919
74	14	0.656671272	0.926546919	0.552613519
74	14	0.636935182	0.93968527	0.583582539
74	14	0.656308763	0.935972162	0.721964593
74	14	0.6376086	0.922175405	0.750627919
74	14	0.655631771	0.953573946	0.552613519
74	14	0.635895681	0.966712297	0.583582539
74	14	0.655269262	0.962999189	0.721964593
74	14	0.636569099	0.949202432	0.750627919
74	14	0.65459227	0.980600973	0.552613519
74	14	0.63485618	0.993739324	0.583582539
74	14	0.654229761	0.990026216	0.721964593
74	14	0.635529598	0.976229459	0.750627919
74	14	0.653552769	0.007628	0.552613519
74	14	0.633816679	0.020766351	0.583582539
74	14	0.65319026	0.017053243	0.721964593
74	14	0.634490097	0.003256486	0.750627919
74	14	0.652513268	0.034655027	0.552613519
74	14	0.632777178	0.047793378	0.583582539
74	14	0.652150759	0.04408027	0.721964593
74	14	0.633450596	0.030283514	0.750627919
74	14	0.651473767	0.061682054	0.552613519
74	14	0.631737677	0.074820405	0.583582539
74	14	0.651111258	0.071107297	0.721964593
74	14	0.632411095	0.057310541	0.750627919
74	14	0.650434266	0.088709081	0.552613519
74	14	0.630698176	0.101847432	0.583582539
74	14	0.650071757	0.098134324	0.721964593
74	14	0.631371594	0.084337568	0.750627919
74	14	0.649394765	0.115736108	0.552613519
74	14	0.629658675	0.128874459	0.583582539
74	14	0.649032256	0.125161351	0.721964593
74	14	0.630332093	0.111364595	0.750627919
74	14	0.648355264	0.142763135	0.552613519
74	14	0.628619174	0.155901486	0.583582539
74	14	0.647992755	0.152188378	0.721964593
74	14	0.629292591	0.138391622	0.750627919
74	14	0.647315763	0.169790162	0.552613519
74	14	0.627579673	0.182928514	0.583582539
74	14	0.646953254	0.179215405	0.721964593
74	14	0.62825309	0.165418649	0.750627919
74	14	0.646276262	0.196817189	0.552613519
74	14	0.626540172	0.209955541	0.583582539
74	14	0.645913753	0.206242432	0.721964593
74	14	0.627213589	0.192445676	0.750627919
74	14	0.645236761	0.223844216	0.552613519
74	14	0.62550067	0.236982568	0.583582539
74	14	0.644874252	0.233269459	0.721964593
74	14	0.626174088	0.219472703	0.750627919
74	14	0.64419726	0.250871243	0.552613519
74	14	0.624461169	0.264009595	0.583582539
74	14	0.643834751	0.260296486	0.721964593
74	14	0.625134587	0.24649973	0.750627919
74	14	0.643157759	0.27789827	0.552613519
74	14	0.623421668	0.291036622	0.583582539
74	14	0.642795249	0.287323514	0.721964593
74	14	0.624095086	0.273526757	0.750627919
74	14	0.642118258	0.304925297	0.552613519
74	14	0.622382167	0.318063649	0.583582539
74	14	0.641755748	0.314350541	0.721964593
74	14	0.623055585	0.300553784	0.750627919
74	14	0.641078757	0.331952324	0.552613519
74	14	0.621342666	0.345090676	0.583582539
74	14	0.640716247	0.341377568	0.721964593
74	14	0.622016084	0.327580811	0.750627919
74	14	0.640039256	0.358979351	0.552613519
74	14	0.620303165	0.372117703	0.583582539
74	14	0.639676746	0.368404595	0.721964593
74	14	0.620976583	0.354607838	0.750627919
74	14	0.638999755	0.386006378	0.552613519
74	14	0.619263664	0.39914473	0.583582539
74	14	0.638637245	0.395431622	0.721964593
74	14	0.619937082	0.381634865	0.750627919
74	14	0.637960254	0.413033405	0.552613519
74	14	0.618224163	0.426171757	0.583582539
74	14	0.637597744	0.422458649	0.721964593
74	14	0.618897581	0.408661892	0.750627919
74	14	0.636920753	0.440060432	0.552613519
74	14	0.617184662	0.453198784	0.583582539
74	14	0.636558243	0.449485676	0.721964593
74	14	0.61785808	0.435688919	0.750627919
74	14	0.635881252	0.467087459	0.552613519
74	14	0.616145161	0.480225811	0.583582539
74	14	0.635518742	0.476512703	0.721964593
74	14	0.616818579	0.462715946	0.750627919
74	14	0.634841751	0.494114486	0.552613519
74	14	0.61510566	0.507252838	0.583582539
74	14	0.634479241	0.50353973	0.721964593
74	14	0.615779078	0.489742973	0.750627919
74	14	0.633802249	0.521141514	0.552613519
74	14	0.614066159	0.534279865	0.583582539
74	14	0.63343974	0.530566757	0.721964593
74	14	0.614739577	0.51677	0.750627919
74	14	0.632762748	0.548168541	0.552613519
74	14	0.613026658	0.561306892	0.583582539
74	14	0.632400239	0.557593784	0.721964593
74	14	0.613700076	0.543797027	0.750627919
74	14	0.631723247	0.575195568	0.552613519
74	14	0.611987157	0.588333919	0.583582539
74	14	0.631360738	0.584620811	0.721964593
74	14	0.612660575	0.570824054	0.750627919
74	14	0.630683746	0.602222595	0.552613519
74	14	0.610947656	0.615360946	0.583582539
74	14	0.630321237	0.611647838	0.721964593
74	14	0.611621074	0.597851081	0.750627919
74	14	0.629644245	0.629249622	0.552613519
74	14	0.609908155	0.642387973	0.583582539
74	14	0.629281736	0.638674865	0.721964593
74	14	0.610581573	0.624878108	0.750627919
74	14	0.628604744	0.656276649	0.552613519
74	14	0.608868654	0.669415	0.583582539
74	14	0.628242235	0.665701892	0.721964593
74	14	0.609542072	0.651905135	0.750627919
74	14	0.627565243	0.683303676	0.552613519
74	14	0.607829153	0.696442027	0.583582539
74	14	0.627202734	0.692728919	0.721964593
74	14	0.608502571	0.678932162	0.750627919
74	14	0.626525742	0.710330703	0.552613519
74	14	0.606789652	0.723469054	0.583582539
74	14	0.626163233	0.719755946	0.721964593
74	14	0.60746307	0.705959189	0.750627919
74	14	0.625486241	0.73735773	0.552613519
74	14	0.605750151	0.750496081	0.583582539
74	14	0.625123732	0.746782973	0.721964593
74	14	0.606423569	0.732986216	0.750627919
74	14	0.62444674	0.764384757	0.552613519
74	14	0.60471065	0.777523108	0.583582539
74	14	0.624084231	0.77381	0.721964593
74	14	0.605384068	0.760013243	0.750627919
74	14	0.623407239	0.791411784	0.552613519
74	14	0.603671149	0.804550135	0.583582539
74	14	0.62304473	0.800837027	0.721964593
74	14	0.604344567	0.78704027	0.750627919
74	14	0.622367738	0.818438811	0.552613519
74	14	0.602631648	0.831577162	0.583582539
74	14	0.622005229	0.827864054	0.721964593
74	14	0.603305065	0.814067297	0.750627919
74	14	0.621328237	0.845465838	0.552613519
74	14	0.601592147	0.858604189	0.583582539
74	14	0.620965728	0.854891081	0.721964593
74	14	0.602265564	0.841094324	0.750627919
74	14	0.620288736	0.872492865	0.552613519
74	14	0.600552646	0.885631216	0.583582539
74	14	0.619926227	0.881918108	0.721964593
74	14	0.601226063	0.868121351	0.750627919
74	14	0.619249235	0.899519892	0.552613519
74	14	0.599513144	0.912658243	0.583582539
74	14	0.618886726	0.908945135	0.721964593
74	14	0.600186562	0.895148378	0.750627919
74	14	0.618209734	0.926546919	0.552613519
74	14	0.598473643	0.93968527	0.583582539
74	14	0.617847225	0.935972162	0.721964593
74	14	0.599147061	0.922175405	0.750627919
74	14	0.617170233	0.953573946	0.552613519
74	14	0.597434142	0.966712297	0.583582539
74	14	0.616807723	0.962999189	0.721964593
74	14	0.59810756	0.949202432	0.750627919
74	14	0.616130732	0.980600973	0.552613519
74	14	0.596394641	0.993739324	0.583582539
74	14	0.615768222	0.990026216	0.721964593
74	14	0.597068059	0.976229459	0.750627919
74	14	0.615091231	0.007628	0.552613519
74	14	0.59535514	0.020766351	0.583582539
74	14	0.614728721	0.017053243	0.721964593
74	14	0.596028558	0.003256486	0.750627919
74	14	0.61405173	0.034655027	0.552613519
74	14	0.594315639	0.047793378	0.583582539
74	14	0.61368922	0.04408027	0.721964593
74	14	0.594989057	0.030283514	0.750627919
74	14	0.613012229	0.061682054	0.552613519
74	14	0.593276138	0.074820405	0.583582539
74	14	0.612649719	0.071107297	0.721964593
74	14	0.593949556	0.057310541	0.750627919
74	14	0.611972728	0.088709081	0.552613519
74	14	0.592236637	0.101847432	0.583582539
74	14	0.611610218	0.098134324	0.721964593
74	14	0.592910055	0.084337568	0.750627919
74	14	0.610933227	0.115736108	0.552613519
74	14	0.591197136	0.128874459	0.583582539
74	14	0.610570717	0.125161351	0.721964593
74	14	0.591870554	0.111364595	0.750627919
74	14	0.609893726	0.142763135	0.552613519
74	14	0.590157635	0.155901486	0.583582539
74	14	0.609531216	0.152188378	0.721964593
74	14	0.590831053	0.138391622	0.750627919
74	14	0.608854225	0.169790162	0.552613519
74	14	0.589118134	0.182928514	0.583582539
74	14	0.608491715	0.179215405	0.721964593
74	14	0.589791552	0.165418649	0.750627919
74	14	0.607814723	0.196817189	0.552613519
74	14	0.588078633	0.209955541	0.583582539
74	14	0.607452214	0.206242432	0.721964593
74	14	0.588752051	0.192445676	0.750627919
74	14	0.606775222	0.223844216	0.552613519
74	14	0.587039132	0.236982568	0.583582539
74	14	0.606412713	0.233269459	0.721964593
74	14	0.58771255	0.219472703	0.750627919
74	14	0.605735721	0.250871243	0.552613519
74	14	0.585999631	0.264009595	0.583582539
74	14	0.605373212	0.260296486	0.721964593
74	14	0.586673049	0.24649973	0.750627919
74	14	0.60469622	0.27789827	0.552613519
74	14	0.58496013	0.291036622	0.583582539
74	14	0.604333711	0.287323514	0.721964593
74	14	0.585633548	0.273526757	0.750627919
74	14	0.603656719	0.304925297	0.552613519
74	14	0.583920629	0.318063649	0.583582539
74	14	0.60329421	0.314350541	0.721964593
74	14	0.584594047	0.300553784	0.750627919
74	14	0.602617218	0.331952324	0.552613519
74	14	0.582881128	0.345090676	0.583582539
74	14	0.602254709	0.341377568	0.721964593
74	14	0.583554546	0.327580811	0.750627919
74	14	0.601577717	0.358979351	0.552613519
74	14	0.581841627	0.372117703	0.583582539
74	14	0.601215208	0.368404595	0.721964593
74	14	0.582515045	0.354607838	0.750627919
74	14	0.600538216	0.386006378	0.552613519
74	14	0.580802126	0.39914473	0.583582539
74	14	0.600175707	0.395431622	0.721964593
74	14	0.581475544	0.381634865	0.750627919
74	14	0.599498715	0.413033405	0.552613519
74	14	0.579762625	0.426171757	0.583582539
74	14	0.599136206	0.422458649	0.721964593
74	14	0.580436043	0.408661892	0.750627919
74	14	0.598459214	0.440060432	0.552613519
74	14	0.578723124	0.453198784	0.583582539
74	14	0.598096705	0.449485676	0.721964593
74	14	0.579396542	0.435688919	0.750627919
74	14	0.597419713	0.467087459	0.552613519
74	14	0.577683623	0.480225811	0.583582539
74	14	0.597057204	0.476512703	0.721964593
74	14	0.578357041	0.462715946	0.750627919
74	14	0.596380212	0.494114486	0.552613519
74	14	0.576644122	0.507252838	0.583582539
74	14	0.596017703	0.50353973	0.721964593
74	14	0.57731754	0.489742973	0.750627919
74	14	0.595340711	0.521141514	0.552613519
74	14	0.575604621	0.534279865	0.583582539
74	14	0.594978202	0.530566757	0.721964593
74	14	0.576278038	0.51677	0.750627919
74	14	0.59430121	0.548168541	0.552613519
74	14	0.57456512	0.561306892	0.583582539
74	14	0.593938701	0.557593784	0.721964593
74	14	0.575238537	0.543797027	0.750627919
74	14	0.593261709	0.575195568	0.552613519
74	14	0.573525619	0.588333919	0.583582539
74	14	0.5928992	0.584620811	0.721964593
74	14	0.574199036	0.570824054	0.750627919
74	14	0.592222208	0.602222595	0.552613519
74	14	0.572486117	0.615360946	0.583582539
74	14	0.591859699	0.611647838	0.721964593
74	14	0.573159535	0.597851081	0.750627919
74	14	0.591182707	0.629249622	0.552613519
74	14	0.571446616	0.642387973	0.583582539
74	14	0.590820198	0.638674865	0.721964593
74	14	0.572120034	0.624878108	0.750627919
74	14	0.590143206	0.656276649	0.552613519
74	14	0.570407115	0.669415	0.583582539
74	14	0.589780696	0.665701892	0.721964593
74	14	0.571080533	0.651905135	0.750627919
74	14	0.589103705	0.683303676	0.552613519
74	14	0.569367614	0.696442027	0.583582539
74	14	0.588741195	0.692728919	0.721964593
74	14	0.570041032	0.678932162	0.750627919
74	14	0.588064204	0.710330703	0.552613519
74	14	0.568328113	0.723469054	0.583582539
74	14	0.587701694	0.719755946	0.721964593
74	14	0.569001531	0.705959189	0.750627919
74	14	0.587024703	0.73735773	0.552613519
74	14	0.567288612	0.750496081	0.583582539
74	14	0.586662193	0.746782973	0.721964593
74	14	0.56796203	0.732986216	0.750627919
74	14	0.585985202	0.764384757	0.552613519
74	14	0.566249111	0.777523108	0.583582539
74	14	0.585622692	0.77381	0.721964593
74	14	0.566922529	0.760013243	0.750627919
74	14	0.584945701	0.791411784	0.552613519
74	14	0.56520961	0.804550135	0.583582539
74	14	0.584583191	0.800837027	0.721964593
74	14	0.565883028	0.78704027	0.750627919
74	14	0.5839062	0.818438811	0.552613519
74	14	0.564170109	0.831577162	0.583582539
74	14	0.58354369	0.827864054	0.721964593
74	14	0.564843527	0.814067297	0.750627919
74	14	0.582866699	0.845465838	0.552613519
74	14	0.563130608	0.858604189	0.583582539
74	14	0.582504189	0.854891081	0.721964593
74	14	0.563804026	0.841094324	0.750627919
74	14	0.581827198	0.872492865	0.552613519
74	14	0.562091107	0.885631216	0.583582539
74	14	0.581464688	0.881918108	0.721964593
74	14	0.562764525	0.868121351	0.750627919
74	14	0.580787696	0.899519892	0.552613519
74	14	0.561051606	0.912658243	0.583582539
74	14	0.580425187	0.908945135	0.721964593
74	14	0.561725024	0.895148378	0.750627919
74	14	0.579748195	0.926546919	0.552613519
74	14	0.560012105	0.93968527	0.583582539
74	14	0.579385686	0.935972162	0.721964593
74	14	0.560685523	0.922175405	0.750627919
74	14	0.578708694	0.953573946	0.552613519
74	14	0.558972604	0.966712297	0.583582539
74	14	0.578346185	0.962999189	0.721964593
74	14	0.559646022	0.949202432	0.750627919
74	14	0.577669193	0.980600973	0.552613519
74	14	0.557933103	0.993739324	0.583582539
74	14	0.577306684	0.990026216	0.721964593
74	14	0.558606521	0.976229459	0.750627919
74	14	0.576629692	0.007628	0.552613519
74	14	0.556893602	0.020766351	0.583582539
74	14	0.576267183	0.017053243	0.721964593
74	14	0.55756702	0.003256486	0.750627919
74	14	0.575590191	0.034655027	0.552613519
74	14	0.555854101	0.047793378	0.583582539
74	14	0.575227682	0.04408027	0.721964593
74	14	0.556527519	0.030283514	0.750627919
74	14	0.57455069	0.061682054	0.552613519
74	14	0.5548146	0.074820405	0.583582539
74	14	0.574188181	0.071107297	0.721964593
74	14	0.555488018	0.057310541	0.750627919
74	14	0.573511189	0.088709081	0.552613519
74	14	0.553775099	0.101847432	0.583582539
74	14	0.57314868	0.098134324	0.721964593
74	14	0.554448517	0.084337568	0.750627919
74	14	0.572471688	0.115736108	0.552613519
74	14	0.552735598	0.128874459	0.583582539
74	14	0.572109179	0.125161351	0.721964593
74	14	0.553409016	0.111364595	0.750627919
74	14	0.571432187	0.142763135	0.552613519
74	14	0.551696097	0.155901486	0.583582539
74	14	0.571069678	0.152188378	0.721964593
74	14	0.552369515	0.138391622	0.750627919
74	14	0.570392686	0.169790162	0.552613519
74	14	0.550656596	0.182928514	0.583582539
74	14	0.570030177	0.179215405	0.721964593
74	14	0.551330014	0.165418649	0.750627919
74	14	0.569353185	0.196817189	0.552613519
74	14	0.549617095	0.209955541	0.583582539
74	14	0.568990676	0.206242432	0.721964593
74	14	0.550290512	0.192445676	0.750627919
74	14	0.568313684	0.223844216	0.552613519
74	14	0.548577594	0.236982568	0.583582539
74	14	0.567951175	0.233269459	0.721964593
74	14	0.549251011	0.219472703	0.750627919
74	14	0.567274183	0.250871243	0.552613519
74	14	0.547538093	0.264009595	0.583582539
74	14	0.566911674	0.260296486	0.721964593
74	14	0.54821151	0.24649973	0.750627919
74	14	0.566234682	0.27789827	0.552613519
74	14	0.546498591	0.291036622	0.583582539
74	14	0.565872173	0.287323514	0.721964593
74	14	0.547172009	0.273526757	0.750627919
74	14	0.565195181	0.304925297	0.552613519
74	14	0.54545909	0.318063649	0.583582539
74	14	0.564832672	0.314350541	0.721964593
74	14	0.546132508	0.300553784	0.750627919
74	14	0.56415568	0.331952324	0.552613519
74	14	0.544419589	0.345090676	0.583582539
74	14	0.56379317	0.341377568	0.721964593
74	14	0.545093007	0.327580811	0.750627919
74	14	0.563116179	0.358979351	0.552613519
74	14	0.543380088	0.372117703	0.583582539
74	14	0.562753669	0.368404595	0.721964593
74	14	0.544053506	0.354607838	0.750627919
74	14	0.562076678	0.386006378	0.552613519
74	14	0.542340587	0.39914473	0.583582539
74	14	0.561714168	0.395431622	0.721964593
74	14	0.543014005	0.381634865	0.750627919
74	14	0.561037177	0.413033405	0.552613519
74	14	0.541301086	0.426171757	0.583582539
74	14	0.560674667	0.422458649	0.721964593
74	14	0.541974504	0.408661892	0.750627919
74	14	0.559997676	0.440060432	0.552613519
74	14	0.540261585	0.453198784	0.583582539
74	14	0.559635166	0.449485676	0.721964593
74	14	0.540935003	0.435688919	0.750627919
74	14	0.558958175	0.467087459	0.552613519
74	14	0.539222084	0.480225811	0.583582539
74	14	0.558595665	0.476512703	0.721964593
74	14	0.539895502	0.462715946	0.750627919
74	14	0.557918674	0.494114486	0.552613519
74	14	0.538182583	0.507252838	0.583582539
74	14	0.557556164	0.50353973	0.721964593
74	14	0.538856001	0.489742973	0.750627919
74	14	0.556879173	0.521141514	0.552613519
74	14	0.537143082	0.534279865	0.583582539
74	14	0.556516663	0.530566757	0.721964593
74	14	0.5378165	0.51677	0.750627919
74	14	0.555839672	0.548168541	0.552613519
74	14	0.536103581	0.561306892	0.583582539
74	14	0.555477162	0.557593784	0.721964593
74	14	0.536776999	0.543797027	0.750627919
74	14	0.55480017	0.575195568	0.552613519
74	14	0.53506408	0.588333919	0.583582539
74	14	0.554437661	0.584620811	0.721964593
74	14	0.535737498	0.570824054	0.750627919
74	14	0.553760669	0.602222595	0.552613519
74	14	0.534024579	0.615360946	0.583582539
74	14	0.55339816	0.611647838	0.721964593
74	14	0.534697997	0.597851081	0.750627919
74	14	0.552721168	0.629249622	0.552613519
74	14	0.532985078	0.642387973	0.583582539
74	14	0.552358659	0.638674865	0.721964593
74	14	0.533658496	0.624878108	0.750627919
74	14	0.551681667	0.656276649	0.552613519
74	14	0.531945577	0.669415	0.583582539
74	14	0.551319158	0.665701892	0.721964593
74	14	0.532618995	0.651905135	0.750627919
74	14	0.550642166	0.683303676	0.552613519
74	14	0.530906076	0.696442027	0.583582539
74	14	0.550279657	0.692728919	0.721964593
74	14	0.531579494	0.678932162	0.750627919
74	14	0.549602665	0.710330703	0.552613519
74	14	0.529866575	0.723469054	0.583582539
74	14	0.549240156	0.719755946	0.721964593
74	14	0.530539993	0.705959189	0.750627919
74	14	0.548563164	0.73735773	0.552613519
74	14	0.528827074	0.750496081	0.583582539
74	14	0.548200655	0.746782973	0.721964593
74	14	0.529500492	0.732986216	0.750627919
74	14	0.547523663	0.764384757	0.552613519
74	14	0.527787573	0.777523108	0.583582539
74	14	0.547161154	0.77381	0.721964593
74	14	0.528460991	0.760013243	0.750627919
74	14	0.546484162	0.791411784	0.552613519
74	14	0.526748072	0.804550135	0.583582539
74	14	0.546121653	0.800837027	0.721964593
74	14	0.52742149	0.78704027	0.750627919
74	14	0.545444661	0.818438811	0.552613519
74	14	0.525708571	0.831577162	0.583582539
74	14	0.545082152	0.827864054	0.721964593
74	14	0.526381989	0.814067297	0.750627919
74	14	0.54440516	0.845465838	0.552613519
74	14	0.52466907	0.858604189	0.583582539
74	14	0.544042651	0.854891081	0.721964593
74	14	0.525342488	0.841094324	0.750627919
74	14	0.543365659	0.872492865	0.552613519
74	14	0.523629569	0.885631216	0.583582539
74	14	0.54300315	0.881918108	0.721964593
74	14	0.524302986	0.868121351	0.750627919
74	14	0.542326158	0.899519892	0.552613519
74	14	0.522590068	0.912658243	0.583582539
74	14	0.541963649	0.908945135	0.721964593
74	14	0.523263485	0.895148378	0.750627919
74	14	0.541286657	0.926546919	0.552613519
74	14	0.521550567	0.93968527	0.583582539
74	14	0.540924148	0.935972162	0.721964593
74	14	0.522223984	0.922175405	0.750627919
74	14	0.540247156	0.953573946	0.552613519
74	14	0.520511065	0.966712297	0.583582539
74	14	0.539884647	0.962999189	0.721964593
74	14	0.521184483	0.949202432	0.750627919
74	14	0.539207655	0.980600973	0.552613519
74	14	0.519471564	0.993739324	0.583582539
74	14	0.538845146	0.990026216	0.721964593
74	14	0.520144982	0.976229459	0.750627919
74	14	0.538168154	0.007628	0.552613519
74	14	0.518432063	0.020766351	0.583582539
74	14	0.537805644	0.017053243	0.721964593
74	14	0.519105481	0.003256486	0.750627919
74	14	0.537128653	0.034655027	0.552613519
74	14	0.517392562	0.047793378	0.583582539
74	14	0.536766143	0.04408027	0.721964593
74	14	0.51806598	0.030283514	0.750627919
74	14	0.536089152	0.061682054	0.552613519
74	14	0.516353061	0.074820405	0.583582539
74	14	0.535726642	0.071107297	0.721964593
74	14	0.517026479	0.057310541	0.750627919
74	14	0.535049651	0.088709081	0.552613519
74	14	0.51531356	0.101847432	0.583582539
74	14	0.534687141	0.098134324	0.721964593
74	14	0.515986978	0.084337568	0.750627919
74	14	0.53401015	0.115736108	0.552613519
74	14	0.514274059	0.128874459	0.583582539
74	14	0.53364764	0.125161351	0.721964593
74	14	0.514947477	0.111364595	0.750627919
74	14	0.532970649	0.142763135	0.552613519
74	14	0.513234558	0.155901486	0.583582539
74	14	0.532608139	0.152188378	0.721964593
74	14	0.513907976	0.138391622	0.750627919
74	14	0.531931148	0.169790162	0.552613519
74	14	0.512195057	0.182928514	0.583582539
74	14	0.531568638	0.179215405	0.721964593
74	14	0.512868475	0.165418649	0.750627919
74	14	0.530891647	0.196817189	0.552613519
74	14	0.511155556	0.209955541	0.583582539
74	14	0.530529137	0.206242432	0.721964593
74	14	0.511828974	0.192445676	0.750627919
74	14	0.529852146	0.223844216	0.552613519
74	14	0.510116055	0.236982568	0.583582539
74	14	0.529489636	0.233269459	0.721964593
74	14	0.510789473	0.219472703	0.750627919
74	14	0.528812644	0.250871243	0.552613519
74	14	0.509076554	0.264009595	0.583582539
74	14	0.528450135	0.260296486	0.721964593
74	14	0.509749972	0.24649973	0.750627919
74	14	0.527773143	0.27789827	0.552613519
74	14	0.508037053	0.291036622	0.583582539
74	14	0.527410634	0.287323514	0.721964593
74	14	0.508710471	0.273526757	0.750627919
74	14	0.526733642	0.304925297	0.552613519
74	14	0.506997552	0.318063649	0.583582539
74	14	0.526371133	0.314350541	0.721964593
74	14	0.50767097	0.300553784	0.750627919
74	14	0.525694141	0.331952324	0.552613519
74	14	0.505958051	0.345090676	0.583582539
74	14	0.525331632	0.341377568	0.721964593
74	14	0.506631469	0.327580811	0.750627919
74	14	0.52465464	0.358979351	0.552613519
74	14	0.50491855	0.372117703	0.583582539
74	14	0.524292131	0.368404595	0.721964593
74	14	0.505591968	0.354607838	0.750627919
74	14	0.523615139	0.386006378	0.552613519
74	14	0.503879049	0.39914473	0.583582539
74	14	0.52325263	0.395431622	0.721964593
74	14	0.504552467	0.381634865	0.750627919
74	14	0.522575638	0.413033405	0.552613519
74	14	0.502839548	0.426171757	0.583582539
74	14	0.522213129	0.422458649	0.721964593
74	14	0.503512966	0.408661892	0.750627919
74	14	0.521536137	0.440060432	0.552613519
74	14	0.501800047	0.453198784	0.583582539
74	14	0.521173628	0.449485676	0.721964593
74	14	0.502473465	0.435688919	0.750627919
74	14	0.520496636	0.467087459	0.552613519
74	14	0.500760546	0.480225811	0.583582539
74	14	0.520134127	0.476512703	0.721964593
74	14	0.501433964	0.462715946	0.750627919
74	14	0.519457135	0.494114486	0.552613519
74	14	0.499721045	0.507252838	0.583582539
74	14	0.519094626	0.50353973	0.721964593
74	14	0.500394463	0.489742973	0.750627919
74	14	0.518417634	0.521141514	0.552613519
74	14	0.498681544	0.534279865	0.583582539
74	14	0.518055125	0.530566757	0.721964593
74	14	0.499354962	0.51677	0.750627919
74	14	0.517378133	0.548168541	0.552613519
74	14	0.497642043	0.561306892	0.583582539
74	14	0.517015624	0.557593784	0.721964593
74	14	0.49831546	0.543797027	0.750627919
74	14	0.516338632	0.575195568	0.552613519
74	14	0.496602542	0.588333919	0.583582539
74	14	0.515976123	0.584620811	0.721964593
74	14	0.497275959	0.570824054	0.750627919
74	14	0.515299131	0.602222595	0.552613519
74	14	0.495563041	0.615360946	0.583582539
74	14	0.514936622	0.611647838	0.721964593
74	14	0.496236458	0.597851081	0.750627919
74	14	0.51425963	0.629249622	0.552613519
74	14	0.49452354	0.642387973	0.583582539
74	14	0.513897121	0.638674865	0.721964593
74	14	0.495196957	0.624878108	0.750627919
74	14	0.513220129	0.656276649	0.552613519
74	14	0.493484038	0.669415	0.583582539
74	14	0.51285762	0.665701892	0.721964593
74	14	0.494157456	0.651905135	0.750627919
74	14	0.512180628	0.683303676	0.552613519
74	14	0.492444537	0.696442027	0.583582539
74	14	0.511818119	0.692728919	0.721964593
74	14	0.493117955	0.678932162	0.750627919
74	14	0.511141127	0.710330703	0.552613519
74	14	0.491405036	0.723469054	0.583582539
74	14	0.510778617	0.719755946	0.721964593
74	14	0.492078454	0.705959189	0.750627919
74	14	0.510101626	0.73735773	0.552613519
74	14	0.490365535	0.750496081	0.583582539
74	14	0.509739116	0.746782973	0.721964593
74	14	0.491038953	0.732986216	0.750627919
74	14	0.509062125	0.764384757	0.552613519
74	14	0.489326034	0.777523108	0.583582539
74	14	0.508699615	0.77381	0.721964593
74	14	0.489999452	0.760013243	0.750627919
74	14	0.508022624	0.791411784	0.552613519
74	14	0.488286533	0.804550135	0.583582539
74	14	0.507660114	0.800837027	0.721964593
74	14	0.488959951	0.78704027	0.750627919
74	14	0.506983123	0.818438811	0.552613519
74	14	0.487247032	0.831577162	0.583582539
74	14	0.506620613	0.827864054	0.721964593
74	14	0.48792045	0.814067297	0.750627919
74	14	0.505943622	0.845465838	0.552613519
74	14	0.486207531	0.858604189	0.583582539
74	14	0.505581112	0.854891081	0.721964593
74	14	0.486880949	0.841094324	0.750627919
74	14	0.504904121	0.872492865	0.552613519
74	14	0.48516803	0.885631216	0.583582539
74	14	0.504541611	0.881918108	0.721964593
74	14	0.485841448	0.868121351	0.750627919
74	14	0.50386462	0.899519892	0.552613519
74	14	0.484128529	0.912658243	0.583582539
74	14	0.50350211	0.908945135	0.721964593
74	14	0.484801947	0.895148378	0.750627919
74	14	0.502825119	0.926546919	0.552613519
74	14	0.483089028	0.93968527	0.583582539
74	14	0.502462609	0.935972162	0.721964593
74	14	0.483762446	0.922175405	0.750627919
74	14	0.501785617	0.953573946	0.552613519
74	14	0.482049527	0.966712297	0.583582539
74	14	0.501423108	0.962999189	0.721964593
74	14	0.482722945	0.949202432	0.750627919
74	14	0.500746116	0.980600973	0.552613519
74	14	0.481010026	0.993739324	0.583582539
74	14	0.500383607	0.990026216	0.721964593
74	14	0.481683444	0.976229459	0.750627919
74	14	0.499706615	0.007628	0.552613519
74	14	0.479970525	0.020766351	0.583582539
74	14	0.499344106	0.017053243	0.721964593
74	14	0.480643943	0.003256486	0.750627919
74	14	0.498667114	0.034655027	0.552613519
74	14	0.478931024	0.047793378	0.583582539
74	14	0.498304605	0.04408027	0.721964593
74	14	0.479604442	0.030283514	0.750627919
74	14	0.497627613	0.061682054	0.552613519
74	14	0.477891523	0.074820405	0.583582539
74	14	0.497265104	0.071107297	0.721964593
74	14	0.478564941	0.057310541	0.750627919
74	14	0.496588112	0.088709081	0.552613519
74	14	0.476852022	0.101847432	0.583582539
74	14	0.496225603	0.098134324	0.721964593
74	14	0.47752544	0.084337568	0.750627919
74	14	0.495548611	0.115736108	0.552613519
74	14	0.475812521	0.128874459	0.583582539
74	14	0.495186102	0.125161351	0.721964593
74	14	0.476485939	0.111364595	0.750627919
74	14	0.49450911	0.142763135	0.552613519
74	14	0.47477302	0.155901486	0.583582539
74	14	0.494146601	0.152188378	0.721964593
74	14	0.475446438	0.138391622	0.750627919
74	14	0.493469609	0.169790162	0.552613519
74	14	0.473733519	0.182928514	0.583582539
74	14	0.4931071	0.179215405	0.721964593
74	14	0.474406937	0.165418649	0.750627919
74	14	0.492430108	0.196817189	0.552613519
74	14	0.472694018	0.209955541	0.583582539
74	14	0.492067599	0.206242432	0.721964593
74	14	0.473367436	0.192445676	0.750627919
74	14	0.491390607	0.223844216	0.552613519
74	14	0.471654517	0.236982568	0.583582539
74	14	0.491028098	0.233269459	0.721964593
74	14	0.472327935	0.219472703	0.750627919
74	14	0.490351106	0.250871243	0.552613519
74	14	0.470615016	0.264009595	0.583582539
74	14	0.489988597	0.260296486	0.721964593
74	14	0.471288433	0.24649973	0.750627919
74	14	0.489311605	0.27789827	0.552613519
74	14	0.469575515	0.291036622	0.583582539
74	14	0.488949096	0.287323514	0.721964593
74	14	0.470248932	0.273526757	0.750627919
74	14	0.488272104	0.304925297	0.552613519
74	14	0.468536014	0.318063649	0.583582539
74	14	0.487909595	0.314350541	0.721964593
74	14	0.469209431	0.300553784	0.750627919
74	14	0.487232603	0.331952324	0.552613519
74	14	0.467496512	0.345090676	0.583582539
74	14	0.486870094	0.341377568	0.721964593
74	14	0.46816993	0.327580811	0.750627919
74	14	0.486193102	0.358979351	0.552613519
74	14	0.466457011	0.372117703	0.583582539
74	14	0.485830593	0.368404595	0.721964593
74	14	0.467130429	0.354607838	0.750627919
74	14	0.485153601	0.386006378	0.552613519
74	14	0.46541751	0.39914473	0.583582539
74	14	0.484791091	0.395431622	0.721964593
74	14	0.466090928	0.381634865	0.750627919
74	14	0.4841141	0.413033405	0.552613519
74	14	0.464378009	0.426171757	0.583582539
74	14	0.48375159	0.422458649	0.721964593
74	14	0.465051427	0.408661892	0.750627919
74	14	0.483074599	0.440060432	0.552613519
74	14	0.463338508	0.453198784	0.583582539
74	14	0.482712089	0.449485676	0.721964593
74	14	0.464011926	0.435688919	0.750627919
74	14	0.482035098	0.467087459	0.552613519
74	14	0.462299007	0.480225811	0.583582539
74	14	0.481672588	0.476512703	0.721964593
74	14	0.462972425	0.462715946	0.750627919
74	14	0.480995597	0.494114486	0.552613519
74	14	0.461259506	0.507252838	0.583582539
74	14	0.480633087	0.50353973	0.721964593
74	14	0.461932924	0.489742973	0.750627919
74	14	0.479956096	0.521141514	0.552613519
74	14	0.460220005	0.534279865	0.583582539
74	14	0.479593586	0.530566757	0.721964593
74	14	0.460893423	0.51677	0.750627919
74	14	0.478916595	0.548168541	0.552613519
74	14	0.459180504	0.561306892	0.583582539
74	14	0.478554085	0.557593784	0.721964593
74	14	0.459853922	0.543797027	0.750627919
74	14	0.477877094	0.575195568	0.552613519
74	14	0.458141003	0.588333919	0.583582539
74	14	0.477514584	0.584620811	0.721964593
74	14	0.458814421	0.570824054	0.750627919
74	14	0.476837593	0.602222595	0.552613519
74	14	0.457101502	0.615360946	0.583582539
74	14	0.476475083	0.611647838	0.721964593
74	14	0.45777492	0.597851081	0.750627919
74	14	0.475798091	0.629249622	0.552613519
74	14	0.456062001	0.642387973	0.583582539
74	14	0.475435582	0.638674865	0.721964593
74	14	0.456735419	0.624878108	0.750627919
74	14	0.47475859	0.656276649	0.552613519
74	14	0.4550225	0.669415	0.583582539
74	14	0.474396081	0.665701892	0.721964593
74	14	0.455695918	0.651905135	0.750627919
74	14	0.473719089	0.683303676	0.552613519
74	14	0.453982999	0.696442027	0.583582539
74	14	0.47335658	0.692728919	0.721964593
74	14	0.454656417	0.678932162	0.750627919
74	14	0.472679588	0.710330703	0.552613519
74	14	0.452943498	0.723469054	0.583582539
74	14	0.472317079	0.719755946	0.721964593
74	14	0.453616916	0.705959189	0.750627919
74	14	0.471640087	0.73735773	0.552613519
74	14	0.451903997	0.750496081	0.583582539
74	14	0.471277578	0.746782973	0.721964593
74	14	0.452577415	0.732986216	0.750627919
74	14	0.470600586	0.764384757	0.552613519
74	14	0.450864496	0.777523108	0.583582539
74	14	0.470238077	0.77381	0.721964593
74	14	0.451537914	0.760013243	0.750627919
74	14	0.469561085	0.791411784	0.552613519
74	14	0.449824995	0.804550135	0.583582539
74	14	0.469198576	0.800837027	0.721964593
74	14	0.450498413	0.78704027	0.750627919
74	14	0.468521584	0.818438811	0.552613519
74	14	0.448785494	0.831577162	0.583582539
74	14	0.468159075	0.827864054	0.721964593
74	14	0.449458912	0.814067297	0.750627919
74	14	0.467482083	0.845465838	0.552613519
74	14	0.447745993	0.858604189	0.583582539
74	14	0.467119574	0.854891081	0.721964593
74	14	0.448419411	0.841094324	0.750627919
74	14	0.466442582	0.872492865	0.552613519
74	14	0.446706492	0.885631216	0.583582539
74	14	0.466080073	0.881918108	0.721964593
74	14	0.44737991	0.868121351	0.750627919
74	14	0.465403081	0.899519892	0.552613519
74	14	0.445666991	0.912658243	0.583582539
74	14	0.465040572	0.908945135	0.721964593
74	14	0.446340409	0.895148378	0.750627919
74	14	0.46436358	0.926546919	0.552613519
74	14	0.44462749	0.93968527	0.583582539
74	14	0.464001071	0.935972162	0.721964593
74	14	0.445300907	0.922175405	0.750627919
74	14	0.463324079	0.953573946	0.552613519
74	14	0.443587989	0.966712297	0.583582539
74	14	0.46296157	0.962999189	0.721964593
74	14	0.444261406	0.949202432	0.750627919
74	14	0.462284578	0.980600973	0.552613519
74	14	0.442548488	0.993739324	0.583582539
74	14	0.461922069	0.990026216	0.721964593
74	14	0.443221905	0.976229459	0.750627919
74	14	0.461245077	0.007628	0.552613519
74	14	0.441508986	0.020766351	0.583582539
74	14	0.460882568	0.017053243	0.721964593
74	14	0.442182404	0.003256486	0.750627919
74	14	0.460205576	0.034655027	0.552613519
74	14	0.440469485	0.047793378	0.583582539
74	14	0.459843067	0.04408027	0.721964593
74	14	0.441142903	0.030283514	0.750627919
74	14	0.459166075	0.061682054	0.552613519
74	14	0.439429984	0.074820405	0.583582539
74	14	0.458803565	0.071107297	0.721964593
74	14	0.440103402	0.057310541	0.750627919
74	14	0.458126574	0.088709081	0.552613519
74	14	0.438390483	0.101847432	0.583582539
74	14	0.457764064	0.098134324	0.721964593
74	14	0.439063901	0.084337568	0.750627919
74	14	0.457087073	0.115736108	0.552613519
74	14	0.437350982	0.128874459	0.583582539
74	14	0.456724563	0.125161351	0.721964593
74	14	0.4380244	0.111364595	0.750627919
74	14	0.456047572	0.142763135	0.552613519
74	14	0.436311481	0.155901486	0.583582539
74	14	0.455685062	0.152188378	0.721964593
74	14	0.436984899	0.138391622	0.750627919
74	14	0.455008071	0.169790162	0.552613519
74	14	0.43527198	0.182928514	0.583582539
74	14	0.454645561	0.179215405	0.721964593
74	14	0.435945398	0.165418649	0.750627919
74	14	0.45396857	0.196817189	0.552613519
74	14	0.434232479	0.209955541	0.583582539
74	14	0.45360606	0.206242432	0.721964593
74	14	0.434905897	0.192445676	0.750627919
74	14	0.452929069	0.223844216	0.552613519
74	14	0.433192978	0.236982568	0.583582539
74	14	0.452566559	0.233269459	0.721964593
74	14	0.433866396	0.219472703	0.750627919
74	14	0.451889568	0.250871243	0.552613519
74	14	0.432153477	0.264009595	0.583582539
74	14	0.451527058	0.260296486	0.721964593
74	14	0.432826895	0.24649973	0.750627919
74	14	0.450850067	0.27789827	0.552613519
74	14	0.431113976	0.291036622	0.583582539
74	14	0.450487557	0.287323514	0.721964593
74	14	0.431787394	0.273526757	0.750627919
74	14	0.449810565	0.304925297	0.552613519
74	14	0.430074475	0.318063649	0.583582539
74	14	0.449448056	0.314350541	0.721964593
74	14	0.430747893	0.300553784	0.750627919
74	14	0.448771064	0.331952324	0.552613519
74	14	0.429034974	0.345090676	0.583582539
74	14	0.448408555	0.341377568	0.721964593
74	14	0.429708392	0.327580811	0.750627919
74	14	0.447731563	0.358979351	0.552613519
74	14	0.427995473	0.372117703	0.583582539
74	14	0.447369054	0.368404595	0.721964593
74	14	0.428668891	0.354607838	0.750627919
74	14	0.446692062	0.386006378	0.552613519
74	14	0.426955972	0.39914473	0.583582539
74	14	0.446329553	0.395431622	0.721964593
74	14	0.42762939	0.381634865	0.750627919
74	14	0.445652561	0.413033405	0.552613519
74	14	0.425916471	0.426171757	0.583582539
74	14	0.445290052	0.422458649	0.721964593
74	14	0.426589889	0.408661892	0.750627919
74	14	0.44461306	0.440060432	0.552613519
74	14	0.42487697	0.453198784	0.583582539
74	14	0.444250551	0.449485676	0.721964593
74	14	0.425550388	0.435688919	0.750627919
74	14	0.443573559	0.467087459	0.552613519
74	14	0.423837469	0.480225811	0.583582539
74	14	0.44321105	0.476512703	0.721964593
74	14	0.424510887	0.462715946	0.750627919
74	14	0.442534058	0.494114486	0.552613519
74	14	0.422797968	0.507252838	0.583582539
74	14	0.442171549	0.50353973	0.721964593
74	14	0.423471386	0.489742973	0.750627919
74	14	0.441494557	0.521141514	0.552613519
74	14	0.421758467	0.534279865	0.583582539
74	14	0.441132048	0.530566757	0.721964593
74	14	0.422431885	0.51677	0.750627919
74	14	0.440455056	0.548168541	0.552613519
74	14	0.420718966	0.561306892	0.583582539
74	14	0.440092547	0.557593784	0.721964593
74	14	0.421392384	0.543797027	0.750627919
74	14	0.439415555	0.575195568	0.552613519
74	14	0.419679465	0.588333919	0.583582539
74	14	0.439053046	0.584620811	0.721964593
74	14	0.420352883	0.570824054	0.750627919
74	14	0.438376054	0.602222595	0.552613519
74	14	0.418639964	0.615360946	0.583582539
74	14	0.438013545	0.611647838	0.721964593
74	14	0.419313381	0.597851081	0.750627919
74	14	0.437336553	0.629249622	0.552613519
74	14	0.417600463	0.642387973	0.583582539
74	14	0.436974044	0.638674865	0.721964593
74	14	0.41827388	0.624878108	0.750627919
74	14	0.436297052	0.656276649	0.552613519
74	14	0.416560962	0.669415	0.583582539
74	14	0.435934543	0.665701892	0.721964593
74	14	0.417234379	0.651905135	0.750627919
74	14	0.435257551	0.683303676	0.552613519
74	14	0.41552146	0.696442027	0.583582539
74	14	0.434895042	0.692728919	0.721964593
74	14	0.416194878	0.678932162	0.750627919
74	14	0.43421805	0.710330703	0.552613519
74	14	0.414481959	0.723469054	0.583582539
74	14	0.433855541	0.719755946	0.721964593
74	14	0.415155377	0.705959189	0.750627919
74	14	0.433178549	0.73735773	0.552613519
74	14	0.413442458	0.750496081	0.583582539
74	14	0.43281604	0.746782973	0.721964593
74	14	0.414115876	0.732986216	0.750627919
74	14	0.432139048	0.764384757	0.552613519
74	14	0.412402957	0.777523108	0.583582539
74	14	0.431776538	0.77381	0.721964593
74	14	0.413076375	0.760013243	0.750627919
74	14	0.431099547	0.791411784	0.552613519
74	14	0.411363456	0.804550135	0.583582539
74	14	0.430737037	0.800837027	0.721964593
74	14	0.412036874	0.78704027	0.750627919
74	14	0.430060046	0.818438811	0.552613519
74	14	0.410323955	0.831577162	0.583582539
74	14	0.429697536	0.827864054	0.721964593
74	14	0.410997373	0.814067297	0.750627919
74	14	0.429020545	0.845465838	0.552613519
74	14	0.409284454	0.858604189	0.583582539
74	14	0.428658035	0.854891081	0.721964593
74	14	0.409957872	0.841094324	0.750627919
74	14	0.427981044	0.872492865	0.552613519
74	14	0.408244953	0.885631216	0.583582539
74	14	0.427618534	0.881918108	0.721964593
74	14	0.408918371	0.868121351	0.750627919
74	14	0.426941543	0.899519892	0.552613519
74	14	0.407205452	0.912658243	0.583582539
74	14	0.426579033	0.908945135	0.721964593
74	14	0.40787887	0.895148378	0.750627919
74	14	0.425902042	0.926546919	0.552613519
74	14	0.406165951	0.93968527	0.583582539
74	14	0.425539532	0.935972162	0.721964593
74	14	0.406839369	0.922175405	0.750627919
74	14	0.424862541	0.953573946	0.552613519
74	14	0.40512645	0.966712297	0.583582539
74	14	0.424500031	0.962999189	0.721964593
74	14	0.405799868	0.949202432	0.750627919
74	14	0.42382304	0.980600973	0.552613519
74	14	0.404086949	0.993739324	0.583582539
74	14	0.42346053	0.990026216	0.721964593
74	14	0.404760367	0.976229459	0.750627919
74	14	0.422783538	0.007628	0.552613519
74	14	0.403047448	0.020766351	0.583582539
74	14	0.422421029	0.017053243	0.721964593
74	14	0.403720866	0.003256486	0.750627919
74	14	0.421744037	0.034655027	0.552613519
74	14	0.402007947	0.047793378	0.583582539
74	14	0.421381528	0.04408027	0.721964593
74	14	0.402681365	0.030283514	0.750627919
74	14	0.420704536	0.061682054	0.552613519
74	14	0.400968446	0.074820405	0.583582539
74	14	0.420342027	0.071107297	0.721964593
74	14	0.401641864	0.057310541	0.750627919
74	14	0.419665035	0.088709081	0.552613519
74	14	0.399928945	0.101847432	0.583582539
74	14	0.419302526	0.098134324	0.721964593
74	14	0.400602363	0.084337568	0.750627919
74	14	0.418625534	0.115736108	0.552613519
74	14	0.398889444	0.128874459	0.583582539
74	14	0.418263025	0.125161351	0.721964593
74	14	0.399562862	0.111364595	0.750627919
74	14	0.417586033	0.142763135	0.552613519
74	14	0.397849943	0.155901486	0.583582539
74	14	0.417223524	0.152188378	0.721964593
74	14	0.398523361	0.138391622	0.750627919
74	14	0.416546532	0.169790162	0.552613519
74	14	0.396810442	0.182928514	0.583582539
74	14	0.416184023	0.179215405	0.721964593
74	14	0.39748386	0.165418649	0.750627919
74	14	0.415507031	0.196817189	0.552613519
74	14	0.395770941	0.209955541	0.583582539
74	14	0.415144522	0.206242432	0.721964593
74	14	0.396444359	0.192445676	0.750627919
74	14	0.41446753	0.223844216	0.552613519
74	14	0.39473144	0.236982568	0.583582539
74	14	0.414105021	0.233269459	0.721964593
74	14	0.395404858	0.219472703	0.750627919
74	14	0.413428029	0.250871243	0.552613519
74	14	0.393691939	0.264009595	0.583582539
74	14	0.41306552	0.260296486	0.721964593
74	14	0.394365357	0.24649973	0.750627919
74	14	0.412388528	0.27789827	0.552613519
74	14	0.392652438	0.291036622	0.583582539
74	14	0.412026019	0.287323514	0.721964593
74	14	0.393325856	0.273526757	0.750627919
74	14	0.411349027	0.304925297	0.552613519
74	14	0.391612937	0.318063649	0.583582539
74	14	0.410986518	0.314350541	0.721964593
74	14	0.392286354	0.300553784	0.750627919
74	14	0.410309526	0.331952324	0.552613519
74	14	0.390573436	0.345090676	0.583582539
74	14	0.409947017	0.341377568	0.721964593
74	14	0.391246853	0.327580811	0.750627919
74	14	0.409270025	0.358979351	0.552613519
74	14	0.389533935	0.372117703	0.583582539
74	14	0.408907516	0.368404595	0.721964593
74	14	0.390207352	0.354607838	0.750627919
74	14	0.408230524	0.386006378	0.552613519
74	14	0.388494433	0.39914473	0.583582539
74	14	0.407868015	0.395431622	0.721964593
74	14	0.389167851	0.381634865	0.750627919
74	14	0.407191023	0.413033405	0.552613519
74	14	0.387454932	0.426171757	0.583582539
74	14	0.406828514	0.422458649	0.721964593
74	14	0.38812835	0.408661892	0.750627919
74	14	0.406151522	0.440060432	0.552613519
74	14	0.386415431	0.453198784	0.583582539
74	14	0.405789012	0.449485676	0.721964593
74	14	0.387088849	0.435688919	0.750627919
74	14	0.405112021	0.467087459	0.552613519
74	14	0.38537593	0.480225811	0.583582539
74	14	0.404749511	0.476512703	0.721964593
74	14	0.386049348	0.462715946	0.750627919
74	14	0.40407252	0.494114486	0.552613519
74	14	0.384336429	0.507252838	0.583582539
74	14	0.40371001	0.50353973	0.721964593
74	14	0.385009847	0.489742973	0.750627919
74	14	0.403033019	0.521141514	0.552613519
74	14	0.383296928	0.534279865	0.583582539
74	14	0.402670509	0.530566757	0.721964593
74	14	0.383970346	0.51677	0.750627919
74	14	0.401993518	0.548168541	0.552613519
74	14	0.382257427	0.561306892	0.583582539
74	14	0.401631008	0.557593784	0.721964593
74	14	0.382930845	0.543797027	0.750627919
74	14	0.400954017	0.575195568	0.552613519
74	14	0.381217926	0.588333919	0.583582539
74	14	0.400591507	0.584620811	0.721964593
74	14	0.381891344	0.570824054	0.750627919
74	14	0.399914516	0.602222595	0.552613519
74	14	0.380178425	0.615360946	0.583582539
74	14	0.399552006	0.611647838	0.721964593
74	14	0.380851843	0.597851081	0.750627919
74	14	0.398875015	0.629249622	0.552613519
74	14	0.379138924	0.642387973	0.583582539
74	14	0.398512505	0.638674865	0.721964593
74	14	0.379812342	0.624878108	0.750627919
74	14	0.397835514	0.656276649	0.552613519
74	14	0.378099423	0.669415	0.583582539
74	14	0.397473004	0.665701892	0.721964593
74	14	0.378772841	0.651905135	0.750627919
74	14	0.396796012	0.683303676	0.552613519
74	14	0.377059922	0.696442027	0.583582539
74	14	0.396433503	0.692728919	0.721964593
74	14	0.37773334	0.678932162	0.750627919
74	14	0.395756511	0.710330703	0.552613519
74	14	0.376020421	0.723469054	0.583582539
74	14	0.395394002	0.719755946	0.721964593
74	14	0.376693839	0.705959189	0.750627919
74	14	0.39471701	0.73735773	0.552613519
74	14	0.37498092	0.750496081	0.583582539
74	14	0.394354501	0.746782973	0.721964593
74	14	0.375654338	0.732986216	0.750627919
74	14	0.393677509	0.764384757	0.552613519
74	14	0.373941419	0.777523108	0.583582539
74	14	0.393315	0.77381	0.721964593
74	14	0.374614837	0.760013243	0.750627919
74	14	0.392638008	0.791411784	0.552613519
74	14	0.372901918	0.804550135	0.583582539
74	14	0.392275499	0.800837027	0.721964593
74	14	0.373575336	0.78704027	0.750627919
74	14	0.391598507	0.818438811	0.552613519
74	14	0.371862417	0.831577162	0.583582539
74	14	0.391235998	0.827864054	0.721964593
74	14	0.372535835	0.814067297	0.750627919
74	14	0.390559006	0.845465838	0.552613519
74	14	0.370822916	0.858604189	0.583582539
74	14	0.390196497	0.854891081	0.721964593
74	14	0.371496334	0.841094324	0.750627919
74	14	0.389519505	0.872492865	0.552613519
74	14	0.369783415	0.885631216	0.583582539
74	14	0.389156996	0.881918108	0.721964593
74	14	0.370456833	0.868121351	0.750627919
74	14	0.388480004	0.899519892	0.552613519
74	14	0.368743914	0.912658243	0.583582539
74	14	0.388117495	0.908945135	0.721964593
74	14	0.369417332	0.895148378	0.750627919
74	14	0.387440503	0.926546919	0.552613519
74	14	0.367704413	0.93968527	0.583582539
74	14	0.387077994	0.935972162	0.721964593
74	14	0.368377831	0.922175405	0.750627919
74	14	0.386401002	0.953573946	0.552613519
74	14	0.366664912	0.966712297	0.583582539
74	14	0.386038493	0.962999189	0.721964593
74	14	0.36733833	0.949202432	0.750627919
74	14	0.385361501	0.980600973	0.552613519
74	14	0.365625411	0.993739324	0.583582539
74	14	0.384998992	0.990026216	0.721964593
74	14	0.366298828	0.976229459	0.750627919
74	14	0.384322	0.007628	0.552613519
74	14	0.36458591	0.020766351	0.583582539
74	14	0.383959491	0.017053243	0.721964593
74	14	0.365259327	0.003256486	0.750627919
74	14	0.383282499	0.034655027	0.552613519
74	14	0.363546409	0.047793378	0.583582539
74	14	0.38291999	0.04408027	0.721964593
74	14	0.364219826	0.030283514	0.750627919
74	14	0.382242998	0.061682054	0.552613519
74	14	0.362506907	0.074820405	0.583582539
74	14	0.381880489	0.071107297	0.721964593
74	14	0.363180325	0.057310541	0.750627919
74	14	0.381203497	0.088709081	0.552613519
74	14	0.361467406	0.101847432	0.583582539
74	14	0.380840988	0.098134324	0.721964593
74	14	0.362140824	0.084337568	0.750627919
74	14	0.380163996	0.115736108	0.552613519
74	14	0.360427905	0.128874459	0.583582539
74	14	0.379801486	0.125161351	0.721964593
74	14	0.361101323	0.111364595	0.750627919
74	14	0.379124495	0.142763135	0.552613519
74	14	0.359388404	0.155901486	0.583582539
74	14	0.378761985	0.152188378	0.721964593
74	14	0.360061822	0.138391622	0.750627919
74	14	0.378084994	0.169790162	0.552613519
74	14	0.358348903	0.182928514	0.583582539
74	14	0.377722484	0.179215405	0.721964593
74	14	0.359022321	0.165418649	0.750627919
74	14	0.377045493	0.196817189	0.552613519
74	14	0.357309402	0.209955541	0.583582539
74	14	0.376682983	0.206242432	0.721964593
74	14	0.35798282	0.192445676	0.750627919
74	14	0.376005992	0.223844216	0.552613519
74	14	0.356269901	0.236982568	0.583582539
74	14	0.375643482	0.233269459	0.721964593
74	14	0.356943319	0.219472703	0.750627919
74	14	0.374966491	0.250871243	0.552613519
74	14	0.3552304	0.264009595	0.583582539
74	14	0.374603981	0.260296486	0.721964593
74	14	0.355903818	0.24649973	0.750627919
74	14	0.37392699	0.27789827	0.552613519
74	14	0.354190899	0.291036622	0.583582539
74	14	0.37356448	0.287323514	0.721964593
74	14	0.354864317	0.273526757	0.750627919
74	14	0.372887489	0.304925297	0.552613519
74	14	0.353151398	0.318063649	0.583582539
74	14	0.372524979	0.314350541	0.721964593
74	14	0.353824816	0.300553784	0.750627919
74	14	0.371847988	0.331952324	0.552613519
74	14	0.352111897	0.345090676	0.583582539
74	14	0.371485478	0.341377568	0.721964593
74	14	0.352785315	0.327580811	0.750627919
74	14	0.370808486	0.358979351	0.552613519
74	14	0.351072396	0.372117703	0.583582539
74	14	0.370445977	0.368404595	0.721964593
74	14	0.351745814	0.354607838	0.750627919
74	14	0.369768985	0.386006378	0.552613519
74	14	0.350032895	0.39914473	0.583582539
74	14	0.369406476	0.395431622	0.721964593
74	14	0.350706313	0.381634865	0.750627919
74	14	0.368729484	0.413033405	0.552613519
74	14	0.348993394	0.426171757	0.583582539
74	14	0.368366975	0.422458649	0.721964593
74	14	0.349666812	0.408661892	0.750627919
74	14	0.367689983	0.440060432	0.552613519
74	14	0.347953893	0.453198784	0.583582539
74	14	0.367327474	0.449485676	0.721964593
74	14	0.348627311	0.435688919	0.750627919
74	14	0.366650482	0.467087459	0.552613519
74	14	0.346914392	0.480225811	0.583582539
74	14	0.366287973	0.476512703	0.721964593
74	14	0.34758781	0.462715946	0.750627919
74	14	0.365610981	0.494114486	0.552613519
74	14	0.345874891	0.507252838	0.583582539
74	14	0.365248472	0.50353973	0.721964593
74	14	0.346548309	0.489742973	0.750627919
74	14	0.36457148	0.521141514	0.552613519
74	14	0.34483539	0.534279865	0.583582539
74	14	0.364208971	0.530566757	0.721964593
74	14	0.345508808	0.51677	0.750627919
74	14	0.363531979	0.548168541	0.552613519
74	14	0.343795889	0.561306892	0.583582539
74	14	0.36316947	0.557593784	0.721964593
74	14	0.344469307	0.543797027	0.750627919
74	14	0.362492478	0.575195568	0.552613519
74	14	0.342756388	0.588333919	0.583582539
74	14	0.362129969	0.584620811	0.721964593
74	14	0.343429806	0.570824054	0.750627919
74	14	0.361452977	0.602222595	0.552613519
74	14	0.341716887	0.615360946	0.583582539
74	14	0.361090468	0.611647838	0.721964593
74	14	0.342390305	0.597851081	0.750627919
74	14	0.360413476	0.629249622	0.552613519
74	14	0.340677386	0.642387973	0.583582539
74	14	0.360050967	0.638674865	0.721964593
74	14	0.341350804	0.624878108	0.750627919
74	14	0.359373975	0.656276649	0.552613519
74	14	0.339637885	0.669415	0.583582539
74	14	0.359011466	0.665701892	0.721964593
74	14	0.340311302	0.651905135	0.750627919
74	14	0.358334474	0.683303676	0.552613519
74	14	0.338598384	0.696442027	0.583582539
74	14	0.357971965	0.692728919	0.721964593
74	14	0.339271801	0.678932162	0.750627919
74	14	0.357294973	0.710330703	0.552613519
74	14	0.337558883	0.723469054	0.583582539
74	14	0.356932464	0.719755946	0.721964593
74	14	0.3382323	0.705959189	0.750627919
74	14	0.356255472	0.73735773	0.552613519
74	14	0.336519381	0.750496081	0.583582539
74	14	0.355892963	0.746782973	0.721964593
74	14	0.337192799	0.732986216	0.750627919
74	14	0.355215971	0.764384757	0.552613519
74	14	0.33547988	0.777523108	0.583582539
74	14	0.354853462	0.77381	0.721964593
74	14	0.336153298	0.760013243	0.750627919
74	14	0.35417647	0.791411784	0.552613519
74	14	0.334440379	0.804550135	0.583582539
74	14	0.35381396	0.800837027	0.721964593
74	14	0.335113797	0.78704027	0.750627919
74	14	0.353136969	0.818438811	0.552613519
74	14	0.333400878	0.831577162	0.583582539
74	14	0.352774459	0.827864054	0.721964593
74	14	0.334074296	0.814067297	0.750627919
74	14	0.352097468	0.845465838	0.552613519
74	14	0.332361377	0.858604189	0.583582539
74	14	0.351734958	0.854891081	0.721964593
74	14	0.333034795	0.841094324	0.750627919
74	14	0.351057967	0.872492865	0.552613519
74	14	0.331321876	0.885631216	0.583582539
74	14	0.350695457	0.881918108	0.721964593
74	14	0.331995294	0.868121351	0.750627919
74	14	0.350018466	0.899519892	0.552613519
74	14	0.330282375	0.912658243	0.583582539
74	14	0.349655956	0.908945135	0.721964593
74	14	0.330955793	0.895148378	0.750627919
74	14	0.348978965	0.926546919	0.552613519
74	14	0.329242874	0.93968527	0.583582539
74	14	0.348616455	0.935972162	0.721964593
74	14	0.329916292	0.922175405	0.750627919
74	14	0.347939464	0.953573946	0.552613519
74	14	0.328203373	0.966712297	0.583582539
74	14	0.347576954	0.962999189	0.721964593
74	14	0.328876791	0.949202432	0.750627919
74	14	0.346899963	0.980600973	0.552613519
74	14	0.327163872	0.993739324	0.583582539
74	14	0.346537453	0.990026216	0.721964593
74	14	0.32783729	0.976229459	0.750627919
74	14	0.345860462	0.007628	0.552613519
74	14	0.326124371	0.020766351	0.583582539
74	14	0.345497952	0.017053243	0.721964593
74	14	0.326797789	0.003256486	0.750627919
74	14	0.34482096	0.034655027	0.552613519
74	14	0.32508487	0.047793378	0.583582539
74	14	0.344458451	0.04408027	0.721964593
74	14	0.325758288	0.030283514	0.750627919
74	14	0.343781459	0.061682054	0.552613519
74	14	0.324045369	0.074820405	0.583582539
74	14	0.34341895	0.071107297	0.721964593
74	14	0.324718787	0.057310541	0.750627919
74	14	0.342741958	0.088709081	0.552613519
74	14	0.323005868	0.101847432	0.583582539
74	14	0.342379449	0.098134324	0.721964593
74	14	0.323679286	0.084337568	0.750627919
74	14	0.341702457	0.115736108	0.552613519
74	14	0.321966367	0.128874459	0.583582539
74	14	0.341339948	0.125161351	0.721964593
74	14	0.322639785	0.111364595	0.750627919
74	14	0.340662956	0.142763135	0.552613519
74	14	0.320926866	0.155901486	0.583582539
74	14	0.340300447	0.152188378	0.721964593
74	14	0.321600284	0.138391622	0.750627919
74	14	0.339623455	0.169790162	0.552613519
74	14	0.319887365	0.182928514	0.583582539
74	14	0.339260946	0.179215405	0.721964593
74	14	0.320560783	0.165418649	0.750627919
74	14	0.338583954	0.196817189	0.552613519
74	14	0.318847864	0.209955541	0.583582539
74	14	0.338221445	0.206242432	0.721964593
74	14	0.319521282	0.192445676	0.750627919
74	14	0.337544453	0.223844216	0.552613519
74	14	0.317808363	0.236982568	0.583582539
74	14	0.337181944	0.233269459	0.721964593
74	14	0.318481781	0.219472703	0.750627919
74	14	0.336504952	0.250871243	0.552613519
74	14	0.316768862	0.264009595	0.583582539
74	14	0.336142443	0.260296486	0.721964593
74	14	0.31744228	0.24649973	0.750627919
74	14	0.335465451	0.27789827	0.552613519
74	14	0.315729361	0.291036622	0.583582539
74	14	0.335102942	0.287323514	0.721964593
74	14	0.316402779	0.273526757	0.750627919
74	14	0.33442595	0.304925297	0.552613519
74	14	0.31468986	0.318063649	0.583582539
74	14	0.334063441	0.314350541	0.721964593
74	14	0.315363278	0.300553784	0.750627919
74	14	0.333386449	0.331952324	0.552613519
74	14	0.313650359	0.345090676	0.583582539
74	14	0.33302394	0.341377568	0.721964593
74	14	0.314323777	0.327580811	0.750627919
74	14	0.332346948	0.358979351	0.552613519
74	14	0.312610858	0.372117703	0.583582539
74	14	0.331984439	0.368404595	0.721964593
74	14	0.313284275	0.354607838	0.750627919
74	14	0.331307447	0.386006378	0.552613519
74	14	0.311571357	0.39914473	0.583582539
74	14	0.330944938	0.395431622	0.721964593
74	14	0.312244774	0.381634865	0.750627919
74	14	0.330267946	0.413033405	0.552613519
74	14	0.310531856	0.426171757	0.583582539
74	14	0.329905437	0.422458649	0.721964593
74	14	0.311205273	0.408661892	0.750627919
74	14	0.329228445	0.440060432	0.552613519
74	14	0.309492354	0.453198784	0.583582539
74	14	0.328865936	0.449485676	0.721964593
74	14	0.310165772	0.435688919	0.750627919
74	14	0.328188944	0.467087459	0.552613519
74	14	0.308452853	0.480225811	0.583582539
74	14	0.327826435	0.476512703	0.721964593
74	14	0.309126271	0.462715946	0.750627919
74	14	0.327149443	0.494114486	0.552613519
74	14	0.307413352	0.507252838	0.583582539
74	14	0.326786933	0.50353973	0.721964593
74	14	0.30808677	0.489742973	0.750627919
74	14	0.326109942	0.521141514	0.552613519
74	14	0.306373851	0.534279865	0.583582539
74	14	0.325747432	0.530566757	0.721964593
74	14	0.307047269	0.51677	0.750627919
74	14	0.325070441	0.548168541	0.552613519
74	14	0.30533435	0.561306892	0.583582539
74	14	0.324707931	0.557593784	0.721964593
74	14	0.306007768	0.543797027	0.750627919
74	14	0.32403094	0.575195568	0.552613519
74	14	0.304294849	0.588333919	0.583582539
74	14	0.32366843	0.584620811	0.721964593
74	14	0.304968267	0.570824054	0.750627919
74	14	0.322991439	0.602222595	0.552613519
74	14	0.303255348	0.615360946	0.583582539
74	14	0.322628929	0.611647838	0.721964593
74	14	0.303928766	0.597851081	0.750627919
74	14	0.321951938	0.629249622	0.552613519
74	14	0.302215847	0.642387973	0.583582539
74	14	0.321589428	0.638674865	0.721964593
74	14	0.302889265	0.624878108	0.750627919
74	14	0.320912437	0.656276649	0.552613519
74	14	0.301176346	0.669415	0.583582539
74	14	0.320549927	0.665701892	0.721964593
74	14	0.301849764	0.651905135	0.750627919
74	14	0.319872936	0.683303676	0.552613519
74	14	0.300136845	0.696442027	0.583582539
74	14	0.319510426	0.692728919	0.721964593
74	14	0.300810263	0.678932162	0.750627919
74	14	0.318833435	0.710330703	0.552613519
74	14	0.299097344	0.723469054	0.583582539
74	14	0.318470925	0.719755946	0.721964593
74	14	0.299770762	0.705959189	0.750627919
74	14	0.317793933	0.73735773	0.552613519
74	14	0.298057843	0.750496081	0.583582539
74	14	0.317431424	0.746782973	0.721964593
74	14	0.298731261	0.732986216	0.750627919
74	14	0.316754432	0.764384757	0.552613519
74	14	0.297018342	0.777523108	0.583582539
74	14	0.316391923	0.77381	0.721964593
74	14	0.29769176	0.760013243	0.750627919
74	14	0.315714931	0.791411784	0.552613519
74	14	0.295978841	0.804550135	0.583582539
74	14	0.315352422	0.800837027	0.721964593
74	14	0.296652259	0.78704027	0.750627919
74	14	0.31467543	0.818438811	0.552613519
74	14	0.29493934	0.831577162	0.583582539
74	14	0.314312921	0.827864054	0.721964593
74	14	0.295612758	0.814067297	0.750627919
74	14	0.313635929	0.845465838	0.552613519
74	14	0.293899839	0.858604189	0.583582539
74	14	0.31327342	0.854891081	0.721964593
74	14	0.294573257	0.841094324	0.750627919
74	14	0.312596428	0.872492865	0.552613519
74	14	0.292860338	0.885631216	0.583582539
74	14	0.312233919	0.881918108	0.721964593
74	14	0.293533756	0.868121351	0.750627919
74	14	0.311556927	0.899519892	0.552613519
74	14	0.291820837	0.912658243	0.583582539
74	14	0.311194418	0.908945135	0.721964593
74	14	0.292494255	0.895148378	0.750627919
74	14	0.310517426	0.926546919	0.552613519
74	14	0.290781336	0.93968527	0.583582539
74	14	0.310154917	0.935972162	0.721964593
74	14	0.291454754	0.922175405	0.750627919
74	14	0.309477925	0.953573946	0.552613519
74	14	0.289741835	0.966712297	0.583582539
74	14	0.309115416	0.962999189	0.721964593
74	14	0.290415253	0.949202432	0.750627919
74	14	0.308438424	0.980600973	0.552613519
74	14	0.288702334	0.993739324	0.583582539
74	14	0.308075915	0.990026216	0.721964593
74	14	0.289375752	0.976229459	0.750627919
74	14	0.307398923	0.007628	0.552613519
74	14	0.287662833	0.020766351	0.583582539
74	14	0.307036414	0.017053243	0.721964593
74	14	0.288336251	0.003256486	0.750627919
74	14	0.306359422	0.034655027	0.552613519
74	14	0.286623332	0.047793378	0.583582539
74	14	0.305996913	0.04408027	0.721964593
74	14	0.287296749	0.030283514	0.750627919
74	14	0.305319921	0.061682054	0.552613519
74	14	0.285583831	0.074820405	0.583582539
74	14	0.304957412	0.071107297	0.721964593
74	14	0.286257248	0.057310541	0.750627919
74	14	0.30428042	0.088709081	0.552613519
74	14	0.28454433	0.101847432	0.583582539
74	14	0.303917911	0.098134324	0.721964593
74	14	0.285217747	0.084337568	0.750627919
74	14	0.303240919	0.115736108	0.552613519
74	14	0.283504828	0.128874459	0.583582539
74	14	0.30287841	0.125161351	0.721964593
74	14	0.284178246	0.111364595	0.750627919
74	14	0.302201418	0.142763135	0.552613519
74	14	0.282465327	0.155901486	0.583582539
74	14	0.301838909	0.152188378	0.721964593
74	14	0.283138745	0.138391622	0.750627919
74	14	0.301161917	0.169790162	0.552613519
74	14	0.281425826	0.182928514	0.583582539
74	14	0.300799407	0.179215405	0.721964593
74	14	0.282099244	0.165418649	0.750627919
74	14	0.300122416	0.196817189	0.552613519
74	14	0.280386325	0.209955541	0.583582539
74	14	0.299759906	0.206242432	0.721964593
74	14	0.281059743	0.192445676	0.750627919
74	14	0.299082915	0.223844216	0.552613519
74	14	0.279346824	0.236982568	0.583582539
74	14	0.298720405	0.233269459	0.721964593
74	14	0.280020242	0.219472703	0.750627919
74	14	0.298043414	0.250871243	0.552613519
74	14	0.278307323	0.264009595	0.583582539
74	14	0.297680904	0.260296486	0.721964593
74	14	0.278980741	0.24649973	0.750627919
74	14	0.297003913	0.27789827	0.552613519
74	14	0.277267822	0.291036622	0.583582539
74	14	0.296641403	0.287323514	0.721964593
74	14	0.27794124	0.273526757	0.750627919
74	14	0.295964412	0.304925297	0.552613519
74	14	0.276228321	0.318063649	0.583582539
74	14	0.295601902	0.314350541	0.721964593
74	14	0.276901739	0.300553784	0.750627919
74	14	0.294924911	0.331952324	0.552613519
74	14	0.27518882	0.345090676	0.583582539
74	14	0.294562401	0.341377568	0.721964593
74	14	0.275862238	0.327580811	0.750627919
74	14	0.29388541	0.358979351	0.552613519
74	14	0.274149319	0.372117703	0.583582539
74	14	0.2935229	0.368404595	0.721964593
74	14	0.274822737	0.354607838	0.750627919
74	14	0.292845909	0.386006378	0.552613519
74	14	0.273109818	0.39914473	0.583582539
74	14	0.292483399	0.395431622	0.721964593
74	14	0.273783236	0.381634865	0.750627919
74	14	0.291806407	0.413033405	0.552613519
74	14	0.272070317	0.426171757	0.583582539
74	14	0.291443898	0.422458649	0.721964593
74	14	0.272743735	0.408661892	0.750627919
74	14	0.290766906	0.440060432	0.552613519
74	14	0.271030816	0.453198784	0.583582539
74	14	0.290404397	0.449485676	0.721964593
74	14	0.271704234	0.435688919	0.750627919
74	14	0.289727405	0.467087459	0.552613519
74	14	0.269991315	0.480225811	0.583582539
74	14	0.289364896	0.476512703	0.721964593
74	14	0.270664733	0.462715946	0.750627919
74	14	0.288687904	0.494114486	0.552613519
74	14	0.268951814	0.507252838	0.583582539
74	14	0.288325395	0.50353973	0.721964593
74	14	0.269625232	0.489742973	0.750627919
74	14	0.287648403	0.521141514	0.552613519
74	14	0.267912313	0.534279865	0.583582539
74	14	0.287285894	0.530566757	0.721964593
74	14	0.268585731	0.51677	0.750627919
74	14	0.286608902	0.548168541	0.552613519
74	14	0.266872812	0.561306892	0.583582539
74	14	0.286246393	0.557593784	0.721964593
74	14	0.26754623	0.543797027	0.750627919
74	14	0.285569401	0.575195568	0.552613519
74	14	0.265833311	0.588333919	0.583582539
74	14	0.285206892	0.584620811	0.721964593
74	14	0.266506729	0.570824054	0.750627919
74	14	0.2845299	0.602222595	0.552613519
74	14	0.26479381	0.615360946	0.583582539
74	14	0.284167391	0.611647838	0.721964593
74	14	0.265467228	0.597851081	0.750627919
74	14	0.283490399	0.629249622	0.552613519
74	14	0.263754309	0.642387973	0.583582539
74	14	0.28312789	0.638674865	0.721964593
74	14	0.264427727	0.624878108	0.750627919
74	14	0.282450898	0.656276649	0.552613519
74	14	0.262714808	0.669415	0.583582539
74	14	0.282088389	0.665701892	0.721964593
74	14	0.263388226	0.651905135	0.750627919
74	14	0.281411397	0.683303676	0.552613519
74	14	0.261675307	0.696442027	0.583582539
74	14	0.281048888	0.692728919	0.721964593
74	14	0.262348725	0.678932162	0.750627919
74	14	0.280371896	0.710330703	0.552613519
74	14	0.260635806	0.723469054	0.583582539
74	14	0.280009387	0.719755946	0.721964593
74	14	0.261309223	0.705959189	0.750627919
74	14	0.279332395	0.73735773	0.552613519
74	14	0.259596305	0.750496081	0.583582539
74	14	0.278969886	0.746782973	0.721964593
74	14	0.260269722	0.732986216	0.750627919
74	14	0.278292894	0.764384757	0.552613519
74	14	0.258556804	0.777523108	0.583582539
74	14	0.277930385	0.77381	0.721964593
74	14	0.259230221	0.760013243	0.750627919
74	14	0.277253393	0.791411784	0.552613519
74	14	0.257517302	0.804550135	0.583582539
74	14	0.276890884	0.800837027	0.721964593
74	14	0.25819072	0.78704027	0.750627919
74	14	0.276213892	0.818438811	0.552613519
74	14	0.256477801	0.831577162	0.583582539
74	14	0.275851383	0.827864054	0.721964593
74	14	0.257151219	0.814067297	0.750627919
74	14	0.275174391	0.845465838	0.552613519
74	14	0.2554383	0.858604189	0.583582539
74	14	0.274811881	0.854891081	0.721964593
74	14	0.256111718	0.841094324	0.750627919
74	14	0.27413489	0.872492865	0.552613519
74	14	0.254398799	0.885631216	0.583582539
74	14	0.27377238	0.881918108	0.721964593
74	14	0.255072217	0.868121351	0.750627919
74	14	0.273095389	0.899519892	0.552613519
74	14	0.253359298	0.912658243	0.583582539
74	14	0.272732879	0.908945135	0.721964593
74	14	0.254032716	0.895148378	0.750627919
74	14	0.272055888	0.926546919	0.552613519
74	14	0.252319797	0.93968527	0.583582539
74	14	0.271693378	0.935972162	0.721964593
74	14	0.252993215	0.922175405	0.750627919
74	14	0.271016387	0.953573946	0.552613519
74	14	0.251280296	0.966712297	0.583582539
74	14	0.270653877	0.962999189	0.721964593
74	14	0.251953714	0.949202432	0.750627919
74	14	0.269976886	0.980600973	0.552613519
74	14	0.250240795	0.993739324	0.583582539
74	14	0.269614376	0.990026216	0.721964593
74	14	0.250914213	0.976229459	0.750627919
74	14	0.268937385	0.007628	0.552613519
74	14	0.249201294	0.020766351	0.583582539
74	14	0.268574875	0.017053243	0.721964593
74	14	0.249874712	0.003256486	0.750627919
74	14	0.267897884	0.034655027	0.552613519
74	14	0.248161793	0.047793378	0.583582539
74	14	0.267535374	0.04408027	0.721964593
74	14	0.248835211	0.030283514	0.750627919
74	14	0.266858383	0.061682054	0.552613519
74	14	0.247122292	0.074820405	0.583582539
74	14	0.266495873	0.071107297	0.721964593
74	14	0.24779571	0.057310541	0.750627919
74	14	0.265818881	0.088709081	0.552613519
74	14	0.246082791	0.101847432	0.583582539
74	14	0.265456372	0.098134324	0.721964593
74	14	0.246756209	0.084337568	0.750627919
74	14	0.26477938	0.115736108	0.552613519
74	14	0.24504329	0.128874459	0.583582539
74	14	0.264416871	0.125161351	0.721964593
74	14	0.245716708	0.111364595	0.750627919
74	14	0.263739879	0.142763135	0.552613519
74	14	0.244003789	0.155901486	0.583582539
74	14	0.26337737	0.152188378	0.721964593
74	14	0.244677207	0.138391622	0.750627919
74	14	0.262700378	0.169790162	0.552613519
74	14	0.242964288	0.182928514	0.583582539
74	14	0.262337869	0.179215405	0.721964593
74	14	0.243637706	0.165418649	0.750627919
74	14	0.261660877	0.196817189	0.552613519
74	14	0.241924787	0.209955541	0.583582539
74	14	0.261298368	0.206242432	0.721964593
74	14	0.242598205	0.192445676	0.750627919
74	14	0.260621376	0.223844216	0.552613519
74	14	0.240885286	0.236982568	0.583582539
74	14	0.260258867	0.233269459	0.721964593
74	14	0.241558704	0.219472703	0.750627919
74	14	0.259581875	0.250871243	0.552613519
74	14	0.239845785	0.264009595	0.583582539
74	14	0.259219366	0.260296486	0.721964593
74	14	0.240519203	0.24649973	0.750627919
74	14	0.258542374	0.27789827	0.552613519
74	14	0.238806284	0.291036622	0.583582539
74	14	0.258179865	0.287323514	0.721964593
74	14	0.239479702	0.273526757	0.750627919
74	14	0.257502873	0.304925297	0.552613519
74	14	0.237766783	0.318063649	0.583582539
74	14	0.257140364	0.314350541	0.721964593
74	14	0.238440201	0.300553784	0.750627919
74	14	0.256463372	0.331952324	0.552613519
74	14	0.236727282	0.345090676	0.583582539
74	14	0.256100863	0.341377568	0.721964593
74	14	0.2374007	0.327580811	0.750627919
74	14	0.255423871	0.358979351	0.552613519
74	14	0.235687781	0.372117703	0.583582539
74	14	0.255061362	0.368404595	0.721964593
74	14	0.236361199	0.354607838	0.750627919
74	14	0.25438437	0.386006378	0.552613519
74	14	0.23464828	0.39914473	0.583582539
74	14	0.254021861	0.395431622	0.721964593
74	14	0.235321698	0.381634865	0.750627919
74	14	0.253344869	0.413033405	0.552613519
74	14	0.233608779	0.426171757	0.583582539
74	14	0.25298236	0.422458649	0.721964593
74	14	0.234282196	0.408661892	0.750627919
74	14	0.252305368	0.440060432	0.552613519
74	14	0.232569278	0.453198784	0.583582539
74	14	0.251942859	0.449485676	0.721964593
74	14	0.233242695	0.435688919	0.750627919
74	14	0.251265867	0.467087459	0.552613519
74	14	0.231529777	0.480225811	0.583582539
74	14	0.250903358	0.476512703	0.721964593
74	14	0.232203194	0.462715946	0.750627919
74	14	0.250226366	0.494114486	0.552613519
74	14	0.230490275	0.507252838	0.583582539
74	14	0.249863857	0.50353973	0.721964593
74	14	0.231163693	0.489742973	0.750627919
74	14	0.249186865	0.521141514	0.552613519
74	14	0.229450774	0.534279865	0.583582539
74	14	0.248824356	0.530566757	0.721964593
74	14	0.230124192	0.51677	0.750627919
74	14	0.248147364	0.548168541	0.552613519
74	14	0.228411273	0.561306892	0.583582539
74	14	0.247784854	0.557593784	0.721964593
74	14	0.229084691	0.543797027	0.750627919
74	14	0.247107863	0.575195568	0.552613519
74	14	0.227371772	0.588333919	0.583582539
74	14	0.246745353	0.584620811	0.721964593
74	14	0.22804519	0.570824054	0.750627919
74	14	0.246068362	0.602222595	0.552613519
74	14	0.226332271	0.615360946	0.583582539
74	14	0.245705852	0.611647838	0.721964593
74	14	0.227005689	0.597851081	0.750627919
74	14	0.245028861	0.629249622	0.552613519
74	14	0.22529277	0.642387973	0.583582539
74	14	0.244666351	0.638674865	0.721964593
74	14	0.225966188	0.624878108	0.750627919
74	14	0.24398936	0.656276649	0.552613519
74	14	0.224253269	0.669415	0.583582539
74	14	0.24362685	0.665701892	0.721964593
74	14	0.224926687	0.651905135	0.750627919
74	14	0.242949859	0.683303676	0.552613519
74	14	0.223213768	0.696442027	0.583582539
74	14	0.242587349	0.692728919	0.721964593
74	14	0.223887186	0.678932162	0.750627919
74	14	0.241910358	0.710330703	0.552613519
74	14	0.222174267	0.723469054	0.583582539
74	14	0.241547848	0.719755946	0.721964593
74	14	0.222847685	0.705959189	0.750627919
74	14	0.240870857	0.73735773	0.552613519
74	14	0.221134766	0.750496081	0.583582539
74	14	0.240508347	0.746782973	0.721964593
74	14	0.221808184	0.732986216	0.750627919
74	14	0.239831356	0.764384757	0.552613519
74	14	0.220095265	0.777523108	0.583582539
74	14	0.239468846	0.77381	0.721964593
74	14	0.220768683	0.760013243	0.750627919
74	14	0.238791854	0.791411784	0.552613519
74	14	0.219055764	0.804550135	0.583582539
74	14	0.238429345	0.800837027	0.721964593
74	14	0.219729182	0.78704027	0.750627919
74	14	0.237752353	0.818438811	0.552613519
74	14	0.218016263	0.831577162	0.583582539
74	14	0.237389844	0.827864054	0.721964593
74	14	0.218689681	0.814067297	0.750627919
74	14	0.236712852	0.845465838	0.552613519
74	14	0.216976762	0.858604189	0.583582539
74	14	0.236350343	0.854891081	0.721964593
74	14	0.21765018	0.841094324	0.750627919
74	14	0.235673351	0.872492865	0.552613519
74	14	0.215937261	0.885631216	0.583582539
74	14	0.235310842	0.881918108	0.721964593
74	14	0.216610679	0.868121351	0.750627919
74	14	0.23463385	0.899519892	0.552613519
74	14	0.21489776	0.912658243	0.583582539
74	14	0.234271341	0.908945135	0.721964593
74	14	0.215571178	0.895148378	0.750627919
74	14	0.233594349	0.926546919	0.552613519
74	14	0.213858259	0.93968527	0.583582539
74	14	0.23323184	0.935972162	0.721964593
74	14	0.214531677	0.922175405	0.750627919
74	14	0.232554848	0.953573946	0.552613519
74	14	0.212818758	0.966712297	0.583582539
74	14	0.232192339	0.962999189	0.721964593
74	14	0.213492176	0.949202432	0.750627919
74	14	0.231515347	0.980600973	0.552613519
74	14	0.211779257	0.993739324	0.583582539
74	14	0.231152838	0.990026216	0.721964593
74	14	0.212452675	0.976229459	0.750627919
74	14	0.230475846	0.007628	0.552613519
74	14	0.210739756	0.020766351	0.583582539
74	14	0.230113337	0.017053243	0.721964593
74	14	0.211413174	0.003256486	0.750627919
74	14	0.229436345	0.034655027	0.552613519
74	14	0.209700255	0.047793378	0.583582539
74	14	0.229073836	0.04408027	0.721964593
74	14	0.210373673	0.030283514	0.750627919
74	14	0.228396844	0.061682054	0.552613519
74	14	0.208660754	0.074820405	0.583582539
74	14	0.228034335	0.071107297	0.721964593
74	14	0.209334172	0.057310541	0.750627919
74	14	0.227357343	0.088709081	0.552613519
74	14	0.207621253	0.101847432	0.583582539
74	14	0.226994834	0.098134324	0.721964593
74	14	0.20829467	0.084337568	0.750627919
74	14	0.226317842	0.115736108	0.552613519
74	14	0.206581752	0.128874459	0.583582539
74	14	0.225955333	0.125161351	0.721964593
74	14	0.207255169	0.111364595	0.750627919
74	14	0.225278341	0.142763135	0.552613519
74	14	0.205542251	0.155901486	0.583582539
74	14	0.224915832	0.152188378	0.721964593
74	14	0.206215668	0.138391622	0.750627919
74	14	0.22423884	0.169790162	0.552613519
74	14	0.204502749	0.182928514	0.583582539
74	14	0.223876331	0.179215405	0.721964593
74	14	0.205176167	0.165418649	0.750627919
74	14	0.223199339	0.196817189	0.552613519
74	14	0.203463248	0.209955541	0.583582539
74	14	0.22283683	0.206242432	0.721964593
74	14	0.204136666	0.192445676	0.750627919
74	14	0.222159838	0.223844216	0.552613519
74	14	0.202423747	0.236982568	0.583582539
74	14	0.221797328	0.233269459	0.721964593
74	14	0.203097165	0.219472703	0.750627919
74	14	0.221120337	0.250871243	0.552613519
74	14	0.201384246	0.264009595	0.583582539
74	14	0.220757827	0.260296486	0.721964593
74	14	0.202057664	0.24649973	0.750627919
74	14	0.220080836	0.27789827	0.552613519
74	14	0.200344745	0.291036622	0.583582539
74	14	0.219718326	0.287323514	0.721964593
74	14	0.201018163	0.273526757	0.750627919
74	14	0.219041335	0.304925297	0.552613519
74	14	0.199305244	0.318063649	0.583582539
74	14	0.218678825	0.314350541	0.721964593
74	14	0.199978662	0.300553784	0.750627919
74	14	0.218001834	0.331952324	0.552613519
74	14	0.198265743	0.345090676	0.583582539
74	14	0.217639324	0.341377568	0.721964593
74	14	0.198939161	0.327580811	0.750627919
74	14	0.216962333	0.358979351	0.552613519
74	14	0.197226242	0.372117703	0.583582539
74	14	0.216599823	0.368404595	0.721964593
74	14	0.19789966	0.354607838	0.750627919
74	14	0.215922832	0.386006378	0.552613519
74	14	0.196186741	0.39914473	0.583582539
74	14	0.215560322	0.395431622	0.721964593
74	14	0.196860159	0.381634865	0.750627919
74	14	0.214883331	0.413033405	0.552613519
74	14	0.19514724	0.426171757	0.583582539
74	14	0.214520821	0.422458649	0.721964593
74	14	0.195820658	0.408661892	0.750627919
74	14	0.21384383	0.440060432	0.552613519
74	14	0.194107739	0.453198784	0.583582539
74	14	0.21348132	0.449485676	0.721964593
74	14	0.194781157	0.435688919	0.750627919
74	14	0.212804328	0.467087459	0.552613519
74	14	0.193068238	0.480225811	0.583582539
74	14	0.212441819	0.476512703	0.721964593
74	14	0.193741656	0.462715946	0.750627919
74	14	0.211764827	0.494114486	0.552613519
74	14	0.192028737	0.507252838	0.583582539
74	14	0.211402318	0.50353973	0.721964593
74	14	0.192702155	0.489742973	0.750627919
74	14	0.210725326	0.521141514	0.552613519
74	14	0.190989236	0.534279865	0.583582539
74	14	0.210362817	0.530566757	0.721964593
74	14	0.191662654	0.51677	0.750627919
74	14	0.209685825	0.548168541	0.552613519
74	14	0.189949735	0.561306892	0.583582539
74	14	0.209323316	0.557593784	0.721964593
74	14	0.190623153	0.543797027	0.750627919
74	14	0.208646324	0.575195568	0.552613519
74	14	0.188910234	0.588333919	0.583582539
74	14	0.208283815	0.584620811	0.721964593
74	14	0.189583652	0.570824054	0.750627919
74	14	0.207606823	0.602222595	0.552613519
74	14	0.187870733	0.615360946	0.583582539
74	14	0.207244314	0.611647838	0.721964593
74	14	0.188544151	0.597851081	0.750627919
74	14	0.206567322	0.629249622	0.552613519
74	14	0.186831232	0.642387973	0.583582539
74	14	0.206204813	0.638674865	0.721964593
74	14	0.18750465	0.624878108	0.750627919
74	14	0.205527821	0.656276649	0.552613519
74	14	0.185791731	0.669415	0.583582539
74	14	0.205165312	0.665701892	0.721964593
74	14	0.186465149	0.651905135	0.750627919
74	14	0.20448832	0.683303676	0.552613519
74	14	0.18475223	0.696442027	0.583582539
74	14	0.204125811	0.692728919	0.721964593
74	14	0.185425648	0.678932162	0.750627919
74	14	0.203448819	0.710330703	0.552613519
74	14	0.183712729	0.723469054	0.583582539
74	14	0.20308631	0.719755946	0.721964593
74	14	0.184386147	0.705959189	0.750627919
74	14	0.202409318	0.73735773	0.552613519
74	14	0.182673228	0.750496081	0.583582539
74	14	0.202046809	0.746782973	0.721964593
74	14	0.183346646	0.732986216	0.750627919
74	14	0.201369817	0.764384757	0.552613519
74	14	0.181633727	0.777523108	0.583582539
74	14	0.201007308	0.77381	0.721964593
74	14	0.182307144	0.760013243	0.750627919
74	14	0.200330316	0.791411784	0.552613519
74	14	0.180594226	0.804550135	0.583582539
74	14	0.199967807	0.800837027	0.721964593
74	14	0.181267643	0.78704027	0.750627919
74	14	0.199290815	0.818438811	0.552613519
74	14	0.179554725	0.831577162	0.583582539
74	14	0.198928306	0.827864054	0.721964593
74	14	0.180228142	0.814067297	0.750627919
74	14	0.198251314	0.845465838	0.552613519
74	14	0.178515223	0.858604189	0.583582539
74	14	0.197888805	0.854891081	0.721964593
74	14	0.179188641	0.841094324	0.750627919
74	14	0.197211813	0.872492865	0.552613519
74	14	0.177475722	0.885631216	0.583582539
74	14	0.196849304	0.881918108	0.721964593
74	14	0.17814914	0.868121351	0.750627919
74	14	0.196172312	0.899519892	0.552613519
74	14	0.176436221	0.912658243	0.583582539
74	14	0.195809802	0.908945135	0.721964593
74	14	0.177109639	0.895148378	0.750627919
74	14	0.195132811	0.926546919	0.552613519
74	14	0.17539672	0.93968527	0.583582539
74	14	0.194770301	0.935972162	0.721964593
74	14	0.176070138	0.922175405	0.750627919
74	14	0.19409331	0.953573946	0.552613519
74	14	0.174357219	0.966712297	0.583582539
74	14	0.1937308	0.962999189	0.721964593
74	14	0.175030637	0.949202432	0.750627919
74	14	0.193053809	0.980600973	0.552613519
74	14	0.173317718	0.993739324	0.583582539
74	14	0.192691299	0.990026216	0.721964593
74	14	0.173991136	0.976229459	0.750627919
74	14	0.192014308	0.007628	0.552613519
74	14	0.172278217	0.020766351	0.583582539
74	14	0.191651798	0.017053243	0.721964593
74	14	0.172951635	0.003256486	0.750627919
74	14	0.190974807	0.034655027	0.552613519
74	14	0.171238716	0.047793378	0.583582539
74	14	0.190612297	0.04408027	0.721964593
74	14	0.171912134	0.030283514	0.750627919
74	14	0.189935306	0.061682054	0.552613519
74	14	0.170199215	0.074820405	0.583582539
74	14	0.189572796	0.071107297	0.721964593
74	14	0.170872633	0.057310541	0.750627919
74	14	0.188895805	0.088709081	0.552613519
74	14	0.169159714	0.101847432	0.583582539
74	14	0.188533295	0.098134324	0.721964593
74	14	0.169833132	0.084337568	0.750627919
74	14	0.187856304	0.115736108	0.552613519
74	14	0.168120213	0.128874459	0.583582539
74	14	0.187493794	0.125161351	0.721964593
74	14	0.168793631	0.111364595	0.750627919
74	14	0.186816802	0.142763135	0.552613519
74	14	0.167080712	0.155901486	0.583582539
74	14	0.186454293	0.152188378	0.721964593
74	14	0.16775413	0.138391622	0.750627919
74	14	0.185777301	0.169790162	0.552613519
74	14	0.166041211	0.182928514	0.583582539
74	14	0.185414792	0.179215405	0.721964593
74	14	0.166714629	0.165418649	0.750627919
74	14	0.1847378	0.196817189	0.552613519
74	14	0.16500171	0.209955541	0.583582539
74	14	0.184375291	0.206242432	0.721964593
74	14	0.165675128	0.192445676	0.750627919
74	14	0.183698299	0.223844216	0.552613519
74	14	0.163962209	0.236982568	0.583582539
74	14	0.18333579	0.233269459	0.721964593
74	14	0.164635627	0.219472703	0.750627919
74	14	0.182658798	0.250871243	0.552613519
74	14	0.162922708	0.264009595	0.583582539
74	14	0.182296289	0.260296486	0.721964593
74	14	0.163596126	0.24649973	0.750627919
74	14	0.181619297	0.27789827	0.552613519
74	14	0.161883207	0.291036622	0.583582539
74	14	0.181256788	0.287323514	0.721964593
74	14	0.162556625	0.273526757	0.750627919
74	14	0.180579796	0.304925297	0.552613519
74	14	0.160843706	0.318063649	0.583582539
74	14	0.180217287	0.314350541	0.721964593
74	14	0.161517124	0.300553784	0.750627919
74	14	0.179540295	0.331952324	0.552613519
74	14	0.159804205	0.345090676	0.583582539
74	14	0.179177786	0.341377568	0.721964593
74	14	0.160477623	0.327580811	0.750627919
74	14	0.178500794	0.358979351	0.552613519
74	14	0.158764704	0.372117703	0.583582539
74	14	0.178138285	0.368404595	0.721964593
74	14	0.159438122	0.354607838	0.750627919
74	14	0.177461293	0.386006378	0.552613519
74	14	0.157725203	0.39914473	0.583582539
74	14	0.177098784	0.395431622	0.721964593
74	14	0.158398621	0.381634865	0.750627919
74	14	0.176421792	0.413033405	0.552613519
74	14	0.156685702	0.426171757	0.583582539
74	14	0.176059283	0.422458649	0.721964593
74	14	0.15735912	0.408661892	0.750627919
74	14	0.175382291	0.440060432	0.552613519
74	14	0.155646201	0.453198784	0.583582539
74	14	0.175019782	0.449485676	0.721964593
74	14	0.156319619	0.435688919	0.750627919
74	14	0.17434279	0.467087459	0.552613519
74	14	0.1546067	0.480225811	0.583582539
74	14	0.173980281	0.476512703	0.721964593
74	14	0.155280117	0.462715946	0.750627919
74	14	0.173303289	0.494114486	0.552613519
74	14	0.153567199	0.507252838	0.583582539
74	14	0.17294078	0.50353973	0.721964593
74	14	0.154240616	0.489742973	0.750627919
74	14	0.172263788	0.521141514	0.552613519
74	14	0.152527698	0.534279865	0.583582539
74	14	0.171901279	0.530566757	0.721964593
74	14	0.153201115	0.51677	0.750627919
74	14	0.171224287	0.548168541	0.552613519
74	14	0.151488196	0.561306892	0.583582539
74	14	0.170861778	0.557593784	0.721964593
74	14	0.152161614	0.543797027	0.750627919
74	14	0.170184786	0.575195568	0.552613519
74	14	0.150448695	0.588333919	0.583582539
74	14	0.169822277	0.584620811	0.721964593
74	14	0.151122113	0.570824054	0.750627919
74	14	0.169145285	0.602222595	0.552613519
74	14	0.149409194	0.615360946	0.583582539
74	14	0.168782775	0.611647838	0.721964593
74	14	0.150082612	0.597851081	0.750627919
74	14	0.168105784	0.629249622	0.552613519
74	14	0.148369693	0.642387973	0.583582539
74	14	0.167743274	0.638674865	0.721964593
74	14	0.149043111	0.624878108	0.750627919
74	14	0.167066283	0.656276649	0.552613519
74	14	0.147330192	0.669415	0.583582539
74	14	0.166703773	0.665701892	0.721964593
74	14	0.14800361	0.651905135	0.750627919
74	14	0.166026782	0.683303676	0.552613519
74	14	0.146290691	0.696442027	0.583582539
74	14	0.165664272	0.692728919	0.721964593
74	14	0.146964109	0.678932162	0.750627919
74	14	0.164987281	0.710330703	0.552613519
74	14	0.14525119	0.723469054	0.583582539
74	14	0.164624771	0.719755946	0.721964593
74	14	0.145924608	0.705959189	0.750627919
74	14	0.16394778	0.73735773	0.552613519
74	14	0.144211689	0.750496081	0.583582539
74	14	0.16358527	0.746782973	0.721964593
74	14	0.144885107	0.732986216	0.750627919
74	14	0.162908279	0.764384757	0.552613519
74	14	0.143172188	0.777523108	0.583582539
74	14	0.162545769	0.77381	0.721964593
74	14	0.143845606	0.760013243	0.750627919
74	14	0.161868778	0.791411784	0.552613519
74	14	0.142132687	0.804550135	0.583582539
74	14	0.161506268	0.800837027	0.721964593
74	14	0.142806105	0.78704027	0.750627919
74	14	0.160829277	0.818438811	0.552613519
74	14	0.141093186	0.831577162	0.583582539
74	14	0.160466767	0.827864054	0.721964593
74	14	0.141766604	0.814067297	0.750627919
74	14	0.159789775	0.845465838	0.552613519
74	14	0.140053685	0.858604189	0.583582539
74	14	0.159427266	0.854891081	0.721964593
74	14	0.140727103	0.841094324	0.750627919
74	14	0.158750274	0.872492865	0.552613519
74	14	0.139014184	0.885631216	0.583582539
74	14	0.158387765	0.881918108	0.721964593
74	14	0.139687602	0.868121351	0.750627919
74	14	0.157710773	0.899519892	0.552613519
74	14	0.137974683	0.912658243	0.583582539
74	14	0.157348264	0.908945135	0.721964593
74	14	0.138648101	0.895148378	0.750627919
74	14	0.156671272	0.926546919	0.552613519
74	14	0.136935182	0.93968527	0.583582539
74	14	0.156308763	0.935972162	0.721964593
74	14	0.1376086	0.922175405	0.750627919
74	14	0.155631771	0.953573946	0.552613519
74	14	0.135895681	0.966712297	0.583582539
74	14	0.155269262	0.962999189	0.721964593
74	14	0.136569099	0.949202432	0.750627919
74	14	0.15459227	0.980600973	0.552613519
74	14	0.13485618	0.993739324	0.583582539
74	14	0.154229761	0.990026216	0.721964593
74	14	0.135529598	0.976229459	0.750627919
74	14	0.153552769	0.007628	0.552613519
74	14	0.133816679	0.020766351	0.583582539
74	14	0.15319026	0.017053243	0.721964593
74	14	0.134490097	0.003256486	0.750627919
74	14	0.152513268	0.034655027	0.552613519
74	14	0.132777178	0.047793378	0.583582539
74	14	0.152150759	0.04408027	0.721964593
74	14	0.133450596	0.030283514	0.750627919
74	14	0.151473767	0.061682054	0.552613519
74	14	0.131737677	0.074820405	0.583582539
74	14	0.151111258	0.071107297	0.721964593
74	14	0.132411095	0.057310541	0.750627919
74	14	0.150434266	0.088709081	0.552613519
74	14	0.130698176	0.101847432	0.583582539
74	14	0.150071757	0.098134324	0.721964593
74	14	0.131371594	0.084337568	0.750627919
74	14	0.149394765	0.115736108	0.552613519
74	14	0.129658675	0.128874459	0.583582539
74	14	0.149032256	0.125161351	0.721964593
74	14	0.130332093	0.111364595	0.750627919
74	14	0.148355264	0.142763135	0.552613519
74	14	0.128619174	0.155901486	0.583582539
74	14	0.147992755	0.152188378	0.721964593
74	14	0.129292591	0.138391622	0.750627919
74	14	0.147315763	0.169790162	0.552613519
74	14	0.127579673	0.182928514	0.583582539
74	14	0.146953254	0.179215405	0.721964593
74	14	0.12825309	0.165418649	0.750627919
74	14	0.146276262	0.196817189	0.552613519
74	14	0.126540172	0.209955541	0.583582539
74	14	0.145913753	0.206242432	0.721964593
74	14	0.127213589	0.192445676	0.750627919
74	14	0.145236761	0.223844216	0.552613519
74	14	0.12550067	0.236982568	0.583582539
74	14	0.144874252	0.233269459	0.721964593
74	14	0.126174088	0.219472703	0.750627919
74	14	0.14419726	0.250871243	0.552613519
74	14	0.124461169	0.264009595	0.583582539
74	14	0.143834751	0.260296486	0.721964593
74	14	0.125134587	0.24649973	0.750627919
74	14	0.143157759	0.27789827	0.552613519
74	14	0.123421668	0.291036622	0.583582539
74	14	0.142795249	0.287323514	0.721964593
74	14	0.124095086	0.273526757	0.750627919
74	14	0.142118258	0.304925297	0.552613519
74	14	0.122382167	0.318063649	0.583582539
74	14	0.141755748	0.314350541	0.721964593
74	14	0.123055585	0.300553784	0.750627919
74	14	0.141078757	0.331952324	0.552613519
74	14	0.121342666	0.345090676	0.583582539
74	14	0.140716247	0.341377568	0.721964593
74	14	0.122016084	0.327580811	0.750627919
74	14	0.140039256	0.358979351	0.552613519
74	14	0.120303165	0.372117703	0.583582539
74	14	0.139676746	0.368404595	0.721964593
74	14	0.120976583	0.354607838	0.750627919
74	14	0.138999755	0.386006378	0.552613519
74	14	0.119263664	0.39914473	0.583582539
74	14	0.138637245	0.395431622	0.721964593
74	14	0.119937082	0.381634865	0.750627919
74	14	0.137960254	0.413033405	0.552613519
74	14	0.118224163	0.426171757	0.583582539
74	14	0.137597744	0.422458649	0.721964593
74	14	0.118897581	0.408661892	0.750627919
74	14	0.136920753	0.440060432	0.552613519
74	14	0.117184662	0.453198784	0.583582539
74	14	0.136558243	0.449485676	0.721964593
74	14	0.11785808	0.435688919	0.750627919
74	14	0.135881252	0.467087459	0.552613519
74	14	0.116145161	0.480225811	0.583582539
74	14	0.135518742	0.476512703	0.721964593
74	14	0.116818579	0.462715946	0.750627919
74	14	0.134841751	0.494114486	0.552613519
74	14	0.11510566	0.507252838	0.583582539
74	14	0.134479241	0.50353973	0.721964593
74	14	0.115779078	0.489742973	0.750627919
74	14	0.133802249	0.521141514	0.552613519
74	14	0.114066159	0.534279865	0.583582539
74	14	0.13343974	0.530566757	0.721964593
74	14	0.114739577	0.51677	0.750627919
74	14	0.132762748	0.548168541	0.552613519
74	14	0.113026658	0.561306892	0.583582539
74	14	0.132400239	0.557593784	0.721964593
74	14	0.113700076	0.543797027	0.750627919
74	14	0.131723247	0.575195568	0.552613519
74	14	0.111987157	0.588333919	0.583582539
74	14	0.131360738	0.584620811	0.721964593
74	14	0.112660575	0.570824054	0.750627919
74	14	0.130683746	0.602222595	0.552613519
74	14	0.110947656	0.615360946	0.583582539
74	14	0.130321237	0.611647838	0.721964593
74	14	0.111621074	0.597851081	0.750627919
74	14	0.129644245	0.629249622	0.552613519
74	14	0.109908155	0.642387973	0.583582539
74	14	0.129281736	0.638674865	0.721964593
74	14	0.110581573	0.624878108	0.750627919
74	14	0.128604744	0.656276649	0.552613519
74	14	0.108868654	0.669415	0.583582539
74	14	0.128242235	0.665701892	0.721964593
74	14	0.109542072	0.651905135	0.750627919
74	14	0.127565243	0.683303676	0.552613519
74	14	0.107829153	0.696442027	0.583582539
74	14	0.127202734	0.692728919	0.721964593
74	14	0.108502571	0.678932162	0.750627919
74	14	0.126525742	0.710330703	0.552613519
74	14	0.106789652	0.723469054	0.583582539
74	14	0.126163233	0.719755946	0.721964593
74	14	0.10746307	0.705959189	0.750627919
74	14	0.125486241	0.73735773	0.552613519
74	14	0.105750151	0.750496081	0.583582539
74	14	0.125123732	0.746782973	0.721964593
74	14	0.106423569	0.732986216	0.750627919
74	14	0.12444674	0.764384757	0.552613519
74	14	0.10471065	0.777523108	0.583582539
74	14	0.124084231	0.77381	0.721964593
74	14	0.105384068	0.760013243	0.750627919
74	14	0.123407239	0.791411784	0.552613519
74	14	0.103671149	0.804550135	0.583582539
74	14	0.12304473	0.800837027	0.721964593
74	14	0.104344567	0.78704027	0.750627919
74	14	0.122367738	0.818438811	0.552613519
74	14	0.102631648	0.831577162	0.583582539
74	14	0.122005229	0.827864054	0.721964593
74	14	0.103305065	0.814067297	0.750627919
74	14	0.121328237	0.845465838	0.552613519
74	14	0.101592147	0.858604189	0.583582539
74	14	0.120965728	0.854891081	0.721964593
74	14	0.102265564	0.841094324	0.750627919
74	14	0.120288736	0.872492865	0.552613519
74	14	0.100552646	0.885631216	0.583582539
74	14	0.119926227	0.881918108	0.721964593
74	14	0.101226063	0.868121351	0.750627919
74	14	0.119249235	0.899519892	0.552613519
74	14	0.099513144	0.912658243	0.583582539
74	14	0.118886726	0.908945135	0.721964593
74	14	0.100186562	0.895148378	0.750627919
74	14	0.118209734	0.926546919	0.552613519
74	14	0.098473643	0.93968527	0.583582539
74	14	0.117847225	0.935972162	0.721964593
74	14	0.099147061	0.922175405	0.750627919
74	14	0.117170233	0.953573946	0.552613519
74	14	0.097434142	0.966712297	0.583582539
74	14	0.116807723	0.962999189	0.721964593
74	14	0.09810756	0.949202432	0.750627919
74	14	0.116130732	0.980600973	0.552613519
74	14	0.096394641	0.993739324	0.583582539
74	14	0.115768222	0.990026216	0.721964593
74	14	0.097068059	0.976229459	0.750627919
74	14	0.115091231	0.007628	0.552613519
74	14	0.09535514	0.020766351	0.583582539
74	14	0.114728721	0.017053243	0.721964593
74	14	0.096028558	0.003256486	0.750627919
74	14	0.11405173	0.034655027	0.552613519
74	14	0.094315639	0.047793378	0.583582539
74	14	0.11368922	0.04408027	0.721964593
74	14	0.094989057	0.030283514	0.750627919
74	14	0.113012229	0.061682054	0.552613519
74	14	0.093276138	0.074820405	0.583582539
74	14	0.112649719	0.071107297	0.721964593
74	14	0.093949556	0.057310541	0.750627919
74	14	0.111972728	0.088709081	0.552613519
74	14	0.092236637	0.101847432	0.583582539
74	14	0.111610218	0.098134324	0.721964593
74	14	0.092910055	0.084337568	0.750627919
74	14	0.110933227	0.115736108	0.552613519
74	14	0.091197136	0.128874459	0.583582539
74	14	0.110570717	0.125161351	0.721964593
74	14	0.091870554	0.111364595	0.750627919
74	14	0.109893726	0.142763135	0.552613519
74	14	0.090157635	0.155901486	0.583582539
74	14	0.109531216	0.152188378	0.721964593
74	14	0.090831053	0.138391622	0.750627919
74	14	0.108854225	0.169790162	0.552613519
74	14	0.089118134	0.182928514	0.583582539
74	14	0.108491715	0.179215405	0.721964593
74	14	0.089791552	0.165418649	0.750627919
74	14	0.107814723	0.196817189	0.552613519
74	14	0.088078633	0.209955541	0.583582539
74	14	0.107452214	0.206242432	0.721964593
74	14	0.088752051	0.192445676	0.750627919
74	14	0.106775222	0.223844216	0.552613519
74	14	0.087039132	0.236982568	0.583582539
74	14	0.106412713	0.233269459	0.721964593
74	14	0.08771255	0.219472703	0.750627919
74	14	0.105735721	0.250871243	0.552613519
74	14	0.085999631	0.264009595	0.583582539
74	14	0.105373212	0.260296486	0.721964593
74	14	0.086673049	0.24649973	0.750627919
74	14	0.10469622	0.27789827	0.552613519
74	14	0.08496013	0.291036622	0.583582539
74	14	0.104333711	0.287323514	0.721964593
74	14	0.085633548	0.273526757	0.750627919
74	14	0.103656719	0.304925297	0.552613519
74	14	0.083920629	0.318063649	0.583582539
74	14	0.10329421	0.314350541	0.721964593
74	14	0.084594047	0.300553784	0.750627919
74	14	0.102617218	0.331952324	0.552613519
74	14	0.082881128	0.345090676	0.583582539
74	14	0.102254709	0.341377568	0.721964593
74	14	0.083554546	0.327580811	0.750627919
74	14	0.101577717	0.358979351	0.552613519
74	14	0.081841627	0.372117703	0.583582539
74	14	0.101215208	0.368404595	0.721964593
74	14	0.082515045	0.354607838	0.750627919
74	14	0.100538216	0.386006378	0.552613519
74	14	0.080802126	0.39914473	0.583582539
74	14	0.100175707	0.395431622	0.721964593
74	14	0.081475544	0.381634865	0.750627919
74	14	0.099498715	0.413033405	0.552613519
74	14	0.079762625	0.426171757	0.583582539
74	14	0.099136206	0.422458649	0.721964593
74	14	0.080436043	0.408661892	0.750627919
74	14	0.098459214	0.440060432	0.552613519
74	14	0.078723124	0.453198784	0.583582539
74	14	0.098096705	0.449485676	0.721964593
74	14	0.079396542	0.435688919	0.750627919
74	14	0.097419713	0.467087459	0.552613519
74	14	0.077683623	0.480225811	0.583582539
74	14	0.097057204	0.476512703	0.721964593
74	14	0.078357041	0.462715946	0.750627919
74	14	0.096380212	0.494114486	0.552613519
74	14	0.076644122	0.507252838	0.583582539
74	14	0.096017703	0.50353973	0.721964593
74	14	0.07731754	0.489742973	0.750627919
74	14	0.095340711	0.521141514	0.552613519
74	14	0.075604621	0.534279865	0.583582539
74	14	0.094978202	0.530566757	0.721964593
74	14	0.076278038	0.51677	0.750627919
74	14	0.09430121	0.548168541	0.552613519
74	14	0.07456512	0.561306892	0.583582539
74	14	0.093938701	0.557593784	0.721964593
74	14	0.075238537	0.543797027	0.750627919
74	14	0.093261709	0.575195568	0.552613519
74	14	0.073525619	0.588333919	0.583582539
74	14	0.0928992	0.584620811	0.721964593
74	14	0.074199036	0.570824054	0.750627919
74	14	0.092222208	0.602222595	0.552613519
74	14	0.072486117	0.615360946	0.583582539
74	14	0.091859699	0.611647838	0.721964593
74	14	0.073159535	0.597851081	0.750627919
74	14	0.091182707	0.629249622	0.552613519
74	14	0.071446616	0.642387973	0.583582539
74	14	0.090820198	0.638674865	0.721964593
74	14	0.072120034	0.624878108	0.750627919
74	14	0.090143206	0.656276649	0.552613519
74	14	0.070407115	0.669415	0.583582539
74	14	0.089780696	0.665701892	0.721964593
74	14	0.071080533	0.651905135	0.750627919
74	14	0.089103705	0.683303676	0.552613519
74	14	0.069367614	0.696442027	0.583582539
74	14	0.088741195	0.692728919	0.721964593
74	14	0.070041032	0.678932162	0.750627919
74	14	0.088064204	0.710330703	0.552613519
74	14	0.068328113	0.723469054	0.583582539
74	14	0.087701694	0.719755946	0.721964593
74	14	0.069001531	0.705959189	0.750627919
74	14	0.087024703	0.73735773	0.552613519
74	14	0.067288612	0.750496081	0.583582539
74	14	0.086662193	0.746782973	0.721964593
74	14	0.06796203	0.732986216	0.750627919
74	14	0.085985202	0.764384757	0.552613519
74	14	0.066249111	0.777523108	0.583582539
74	14	0.085622692	0.77381	0.721964593
74	14	0.066922529	0.760013243	0.750627919
74	14	0.084945701	0.791411784	0.552613519
74	14	0.06520961	0.804550135	0.583582539
74	14	0.084583191	0.800837027	0.721964593
74	14	0.065883028	0.78704027	0.750627919
74	14	0.0839062	0.818438811	0.552613519
74	14	0.064170109	0.831577162	0.583582539
74	14	0.08354369	0.827864054	0.721964593
74	14	0.064843527	0.814067297	0.750627919
74	14	0.082866699	0.845465838	0.552613519
74	14	0.063130608	0.858604189	0.583582539
74	14	0.082504189	0.854891081	0.721964593
74	14	0.063804026	0.841094324	0.750627919
74	14	0.081827198	0.872492865	0.552613519
74	14	0.062091107	0.885631216	0.583582539
74	14	0.081464688	0.881918108	0.721964593
74	14	0.062764525	0.868121351	0.750627919
74	14	0.080787696	0.899519892	0.552613519
74	14	0.061051606	0.912658243	0.583582539
74	14	0.080425187	0.908945135	0.721964593
74	14	0.061725024	0.895148378	0.750627919
74	14	0.079748195	0.926546919	0.552613519
74	14	0.060012105	0.93968527	0.583582539
74	14	0.079385686	0.935972162	0.721964593
74	14	0.060685523	0.922175405	0.750627919
74	14	0.078708694	0.953573946	0.552613519
74	14	0.058972604	0.966712297	0.583582539
74	14	0.078346185	0.962999189	0.721964593
74	14	0.059646022	0.949202432	0.750627919
74	14	0.077669193	0.980600973	0.552613519
74	14	0.057933103	0.993739324	0.583582539
74	14	0.077306684	0.990026216	0.721964593
74	14	0.058606521	0.976229459	0.750627919
74	14	0.076629692	0.007628	0.552613519
74	14	0.056893602	0.020766351	0.583582539
74	14	0.076267183	0.017053243	0.721964593
74	14	0.05756702	0.003256486	0.750627919
74	14	0.075590191	0.034655027	0.552613519
74	14	0.055854101	0.047793378	0.583582539
74	14	0.075227682	0.04408027	0.721964593
74	14	0.056527519	0.030283514	0.750627919
74	14	0.07455069	0.061682054	0.552613519
74	14	0.0548146	0.074820405	0.583582539
74	14	0.074188181	0.071107297	0.721964593
74	14	0.055488018	0.057310541	0.750627919
74	14	0.073511189	0.088709081	0.552613519
74	14	0.053775099	0.101847432	0.583582539
74	14	0.07314868	0.098134324	0.721964593
74	14	0.054448517	0.084337568	0.750627919
74	14	0.072471688	0.115736108	0.552613519
74	14	0.052735598	0.128874459	0.583582539
74	14	0.072109179	0.125161351	0.721964593
74	14	0.053409016	0.111364595	0.750627919
74	14	0.071432187	0.142763135	0.552613519
74	14	0.051696097	0.155901486	0.583582539
74	14	0.071069678	0.152188378	0.721964593
74	14	0.052369515	0.138391622	0.750627919
74	14	0.070392686	0.169790162	0.552613519
74	14	0.050656596	0.182928514	0.583582539
74	14	0.070030177	0.179215405	0.721964593
74	14	0.051330014	0.165418649	0.750627919
74	14	0.069353185	0.196817189	0.552613519
74	14	0.049617095	0.209955541	0.583582539
74	14	0.068990676	0.206242432	0.721964593
74	14	0.050290512	0.192445676	0.750627919
74	14	0.068313684	0.223844216	0.552613519
74	14	0.048577594	0.236982568	0.583582539
74	14	0.067951175	0.233269459	0.721964593
74	14	0.049251011	0.219472703	0.750627919
74	14	0.067274183	0.250871243	0.552613519
74	14	0.047538093	0.264009595	0.583582539
74	14	0.066911674	0.260296486	0.721964593
74	14	0.04821151	0.24649973	0.750627919
74	14	0.066234682	0.27789827	0.552613519
74	14	0.046498591	0.291036622	0.583582539
74	14	0.065872173	0.287323514	0.721964593
74	14	0.047172009	0.273526757	0.750627919
74	14	0.065195181	0.304925297	0.552613519
74	14	0.04545909	0.318063649	0.583582539
74	14	0.064832672	0.314350541	0.721964593
74	14	0.046132508	0.300553784	0.750627919
74	14	0.06415568	0.331952324	0.552613519
74	14	0.044419589	0.345090676	0.583582539
74	14	0.06379317	0.341377568	0.721964593
74	14	0.045093007	0.327580811	0.750627919
74	14	0.063116179	0.358979351	0.552613519
74	14	0.043380088	0.372117703	0.583582539
74	14	0.062753669	0.368404595	0.721964593
74	14	0.044053506	0.354607838	0.750627919
74	14	0.062076678	0.386006378	0.552613519
74	14	0.042340587	0.39914473	0.583582539
74	14	0.061714168	0.395431622	0.721964593
74	14	0.043014005	0.381634865	0.750627919
74	14	0.061037177	0.413033405	0.552613519
74	14	0.041301086	0.426171757	0.583582539
74	14	0.060674667	0.422458649	0.721964593
74	14	0.041974504	0.408661892	0.750627919
74	14	0.059997676	0.440060432	0.552613519
74	14	0.040261585	0.453198784	0.583582539
74	14	0.059635166	0.449485676	0.721964593
74	14	0.040935003	0.435688919	0.750627919
74	14	0.058958175	0.467087459	0.552613519
74	14	0.039222084	0.480225811	0.583582539
74	14	0.058595665	0.476512703	0.721964593
74	14	0.039895502	0.462715946	0.750627919
74	14	0.057918674	0.494114486	0.552613519
74	14	0.038182583	0.507252838	0.583582539
74	14	0.057556164	0.50353973	0.721964593
74	14	0.038856001	0.489742973	0.750627919
74	14	0.056879173	0.521141514	0.552613519
74	14	0.037143082	0.534279865	0.583582539
74	14	0.056516663	0.530566757	0.721964593
74	14	0.0378165	0.51677	0.750627919
74	14	0.055839672	0.548168541	0.552613519
74	14	0.036103581	0.561306892	0.583582539
74	14	0.055477162	0.557593784	0.721964593
74	14	0.036776999	0.543797027	0.750627919
74	14	0.05480017	0.575195568	0.552613519
74	14	0.03506408	0.588333919	0.583582539
74	14	0.054437661	0.584620811	0.721964593
74	14	0.035737498	0.570824054	0.750627919
74	14	0.053760669	0.602222595	0.552613519
74	14	0.034024579	0.615360946	0.583582539
74	14	0.05339816	0.611647838	0.721964593
74	14	0.034697997	0.597851081	0.750627919
74	14	0.052721168	0.629249622	0.552613519
74	14	0.032985078	0.642387973	0.583582539
74	14	0.052358659	0.638674865	0.721964593
74	14	0.033658496	0.624878108	0.750627919
74	14	0.051681667	0.656276649	0.552613519
74	14	0.031945577	0.669415	0.583582539
74	14	0.051319158	0.665701892	0.721964593
74	14	0.032618995	0.651905135	0.750627919
74	14	0.050642166	0.683303676	0.552613519
74	14	0.030906076	0.696442027	0.583582539
74	14	0.050279657	0.692728919	0.721964593
74	14	0.031579494	0.678932162	0.750627919
74	14	0.049602665	0.710330703	0.552613519
74	14	0.029866575	0.723469054	0.583582539
74	14	0.049240156	0.719755946	0.721964593
74	14	0.030539993	0.705959189	0.750627919
74	14	0.048563164	0.73735773	0.552613519
74	14	0.028827074	0.750496081	0.583582539
74	14	0.048200655	0.746782973	0.721964593
74	14	0.029500492	0.732986216	0.750627919
74	14	0.047523663	0.764384757	0.552613519
74	14	0.027787573	0.777523108	0.583582539
74	14	0.047161154	0.77381	0.721964593
74	14	0.028460991	0.760013243	0.750627919
74	14	0.046484162	0.791411784	0.552613519
74	14	0.026748072	0.804550135	0.583582539
74	14	0.046121653	0.800837027	0.721964593
74	14	0.02742149	0.78704027	0.750627919
74	14	0.045444661	0.818438811	0.552613519
74	14	0.025708571	0.831577162	0.583582539
74	14	0.045082152	0.827864054	0.721964593
74	14	0.026381989	0.814067297	0.750627919
74	14	0.04440516	0.845465838	0.552613519
74	14	0.02466907	0.858604189	0.583582539
74	14	0.044042651	0.854891081	0.721964593
74	14	0.025342488	0.841094324	0.750627919
74	14	0.043365659	0.872492865	0.552613519
74	14	0.023629569	0.885631216	0.583582539
74	14	0.04300315	0.881918108	0.721964593
74	14	0.024302986	0.868121351	0.750627919
74	14	0.042326158	0.899519892	0.552613519
74	14	0.022590068	0.912658243	0.583582539
74	14	0.041963649	0.908945135	0.721964593
74	14	0.023263485	0.895148378	0.750627919
74	14	0.041286657	0.926546919	0.552613519
74	14	0.021550567	0.93968527	0.583582539
74	14	0.040924148	0.935972162	0.721964593
74	14	0.022223984	0.922175405	0.750627919
74	14	0.040247156	0.953573946	0.552613519
74	14	0.020511065	0.966712297	0.583582539
74	14	0.039884647	0.962999189	0.721964593
74	14	0.021184483	0.949202432	0.750627919
74	14	0.039207655	0.980600973	0.552613519
74	14	0.019471564	0.993739324	0.583582539
74	14	0.038845146	0.990026216	0.721964593
74	14	0.020144982	0.976229459	0.750627919
74	14	0.038168154	0.007628	0.552613519
74	14	0.018432063	0.020766351	0.583582539
74	14	0.037805644	0.017053243	0.721964593
74	14	0.019105481	0.003256486	0.750627919
74	14	0.037128653	0.034655027	0.552613519
74	14	0.017392562	0.047793378	0.583582539
74	14	0.036766143	0.04408027	0.721964593
74	14	0.01806598	0.030283514	0.750627919
74	14	0.036089152	0.061682054	0.552613519
74	14	0.016353061	0.074820405	0.583582539
74	14	0.035726642	0.071107297	0.721964593
74	14	0.017026479	0.057310541	0.750627919
74	14	0.035049651	0.088709081	0.552613519
74	14	0.01531356	0.101847432	0.583582539
74	14	0.034687141	0.098134324	0.721964593
74	14	0.015986978	0.084337568	0.750627919
74	14	0.03401015	0.115736108	0.552613519
74	14	0.014274059	0.128874459	0.583582539
74	14	0.03364764	0.125161351	0.721964593
74	14	0.014947477	0.111364595	0.750627919
74	14	0.032970649	0.142763135	0.552613519
74	14	0.013234558	0.155901486	0.583582539
74	14	0.032608139	0.152188378	0.721964593
74	14	0.013907976	0.138391622	0.750627919
74	14	0.031931148	0.169790162	0.552613519
74	14	0.012195057	0.182928514	0.583582539
74	14	0.031568638	0.179215405	0.721964593
74	14	0.012868475	0.165418649	0.750627919
74	14	0.030891647	0.196817189	0.552613519
74	14	0.011155556	0.209955541	0.583582539
74	14	0.030529137	0.206242432	0.721964593
74	14	0.011828974	0.192445676	0.750627919
74	14	0.029852146	0.223844216	0.552613519
74	14	0.010116055	0.236982568	0.583582539
74	14	0.029489636	0.233269459	0.721964593
74	14	0.010789473	0.219472703	0.750627919
74	14	0.028812644	0.250871243	0.552613519
74	14	0.009076554	0.264009595	0.583582539
74	14	0.028450135	0.260296486	0.721964593
74	14	0.009749972	0.24649973	0.750627919
74	14	0.027773143	0.27789827	0.552613519
74	14	0.008037053	0.291036622	0.583582539
74	14	0.027410634	0.287323514	0.721964593
74	14	0.008710471	0.273526757	0.750627919
74	14	0.026733642	0.304925297	0.552613519
74	14	0.006997552	0.318063649	0.583582539
74	14	0.026371133	0.314350541	0.721964593
74	14	0.00767097	0.300553784	0.750627919
74	14	0.025694141	0.331952324	0.552613519
74	14	0.005958051	0.345090676	0.583582539
74	14	0.025331632	0.341377568	0.721964593
74	14	0.006631469	0.327580811	0.750627919
74	14	0.02465464	0.358979351	0.552613519
74	14	0.00491855	0.372117703	0.583582539
74	14	0.024292131	0.368404595	0.721964593
74	14	0.005591968	0.354607838	0.750627919
74	14	0.023615139	0.386006378	0.552613519
74	14	0.003879049	0.39914473	0.583582539
74	14	0.02325263	0.395431622	0.721964593
74	14	0.004552467	0.381634865	0.750627919
74	14	0.022575638	0.413033405	0.552613519
74	14	0.002839548	0.426171757	0.583582539
74	14	0.022213129	0.422458649	0.721964593
74	14	0.003512966	0.408661892	0.750627919
74	14	0.021536137	0.440060432	0.552613519
74	14	0.001800047	0.453198784	0.583582539
74	14	0.021173628	0.449485676	0.721964593
74	14	0.002473465	0.435688919	0.750627919
74	14	0.020496636	0.467087459	0.552613519
74	14	0.000760546	0.480225811	0.583582539
74	14	0.020134127	0.476512703	0.721964593
74	14	0.001433964	0.462715946	0.750627919
74	14	0.019457135	0.494114486	0.552613519
74	14	0.999721045	0.507252838	0.583582539
74	14	0.019094626	0.50353973	0.721964593
74	14	0.000394463	0.489742973	0.750627919
74	14	0.018417634	0.521141514	0.552613519
74	14	0.998681544	0.534279865	0.583582539
74	14	0.018055125	0.530566757	0.721964593
74	14	0.999354962	0.51677	0.750627919
74	14	0.017378133	0.548168541	0.552613519
74	14	0.997642043	0.561306892	0.583582539
74	14	0.017015624	0.557593784	0.721964593
74	14	0.99831546	0.543797027	0.750627919
74	14	0.016338632	0.575195568	0.552613519
74	14	0.996602542	0.588333919	0.583582539
74	14	0.015976123	0.584620811	0.721964593
74	14	0.997275959	0.570824054	0.750627919
74	14	0.015299131	0.602222595	0.552613519
74	14	0.995563041	0.615360946	0.583582539
74	14	0.014936622	0.611647838	0.721964593
74	14	0.996236458	0.597851081	0.750627919
74	14	0.01425963	0.629249622	0.552613519
74	14	0.99452354	0.642387973	0.583582539
74	14	0.013897121	0.638674865	0.721964593
74	14	0.995196957	0.624878108	0.750627919
74	14	0.013220129	0.656276649	0.552613519
74	14	0.993484038	0.669415	0.583582539
74	14	0.01285762	0.665701892	0.721964593
74	14	0.994157456	0.651905135	0.750627919
74	14	0.012180628	0.683303676	0.552613519
74	14	0.992444537	0.696442027	0.583582539
74	14	0.011818119	0.692728919	0.721964593
74	14	0.993117955	0.678932162	0.750627919
74	14	0.011141127	0.710330703	0.552613519
74	14	0.991405036	0.723469054	0.583582539
74	14	0.010778617	0.719755946	0.721964593
74	14	0.992078454	0.705959189	0.750627919
74	14	0.010101626	0.73735773	0.552613519
74	14	0.990365535	0.750496081	0.583582539
74	14	0.009739116	0.746782973	0.721964593
74	14	0.991038953	0.732986216	0.750627919
74	14	0.009062125	0.764384757	0.552613519
74	14	0.989326034	0.777523108	0.583582539
74	14	0.008699615	0.77381	0.721964593
74	14	0.989999452	0.760013243	0.750627919
74	14	0.008022624	0.791411784	0.552613519
74	14	0.988286533	0.804550135	0.583582539
74	14	0.007660114	0.800837027	0.721964593
74	14	0.988959951	0.78704027	0.750627919
74	14	0.006983123	0.818438811	0.552613519
74	14	0.987247032	0.831577162	0.583582539
74	14	0.006620613	0.827864054	0.721964593
74	14	0.98792045	0.814067297	0.750627919
74	14	0.005943622	0.845465838	0.552613519
74	14	0.986207531	0.858604189	0.583582539
74	14	0.005581112	0.854891081	0.721964593
74	14	0.986880949	0.841094324	0.750627919
74	14	0.004904121	0.872492865	0.552613519
74	14	0.98516803	0.885631216	0.583582539
74	14	0.004541611	0.881918108	0.721964593
74	14	0.985841448	0.868121351	0.750627919
74	14	0.00386462	0.899519892	0.552613519
74	14	0.984128529	0.912658243	0.583582539
74	14	0.00350211	0.908945135	0.721964593
74	14	0.984801947	0.895148378	0.750627919
74	14	0.002825119	0.926546919	0.552613519
74	14	0.983089028	0.93968527	0.583582539
74	14	0.002462609	0.935972162	0.721964593
74	14	0.983762446	0.922175405	0.750627919
74	14	0.001785617	0.953573946	0.552613519
74	14	0.982049527	0.966712297	0.583582539
74	14	0.001423108	0.962999189	0.721964593
74	14	0.982722945	0.949202432	0.750627919
74	14	0.000746116	0.980600973	0.552613519
74	14	0.981010026	0.993739324	0.583582539
74	14	0.000383607	0.990026216	0.721964593
74	14	0.981683444	0.976229459	0.750627919
74	14	0.999706615	0.007628	0.552613519
74	14	0.979970525	0.020766351	0.583582539
74	14	0.999344106	0.017053243	0.721964593
74	14	0.980643943	0.003256486	0.750627919